$molecule
0  1
O 3.0160762155 -1.7805316372 -1.2992291125
C 3.7882324204 -0.7955877056 -1.3084747366
C 3.5829179303 0.5637932351 -0.5489544795
C 2.7874792998 0.3875595122 0.8121897049
C 2.2671551289 -1.0718033147 1.0667488206
O 0.9249866109 -1.1321192557 0.5757834567
C 0.4087707755 -2.5162849922 0.6604856746
C -0.9560358353 -2.5706537238 -0.118515883
O -2.1628317027 -2.2289197266 0.6677699882
C -2.2700072846 -0.8091173816 0.9182326654
C -3.7837150621 -0.3862160842 0.7879933202
C -4.0538672078 1.1146142409 0.3756962812
C -2.9032037431 1.7929845389 -0.4578098659
O -1.8251149225 1.3119536165 -0.8624724134
O 4.9818452659 -0.7322554123 -2.0922558711
O -3.3172020729 3.1423412778 -0.7199323105
O -1.3313743005 -0.0818084902 1.2987304197
C -2.2949901316 3.8311362086 -1.5398638005
C -4.6543699172 -1.1749924106 -0.2843720775
C -6.1366103626 -1.2017160028 0.2519713077
C -6.5234836137 0.3174054867 0.1022682489
C -5.25500293 0.8914631229 -0.6467856384
O -4.7482180572 -0.2542249574 -1.4416409253
H -4.2242241354 -0.5535641887 1.7899457663
H -4.3254648987 1.7571568003 1.2317828858
H -4.2244328787 -2.150500175 -0.5822631399
H -6.7645520335 -1.8400772042 -0.3904197188
H -6.2068627339 -1.5632684925 1.290315067
H -7.4286907629 0.4504577062 -0.511006802
H -6.6820281716 0.8120253787 1.0742915388
H -5.4489643091 1.7648492607 -1.2995662194
O 2.8581363465 -2.0107127533 1.6426193453
C 5.1607924032 -1.9964602464 -2.8437361751
C 4.9524578419 1.1608522533 -0.0166031505
C 4.70704231 2.6441758447 0.4706615674
C 3.9815611562 2.400876953 1.8462461732
C 3.8920418839 0.8253596725 1.8632463746
O 5.1679835178 0.4045888907 1.2384743568
H 3.0635253246 1.2626366417 -1.2311172844
H 1.9130793807 1.0614051269 0.835838399
H 4.3279280653 -2.1681888079 -3.5560942726
H 5.8023809137 1.0172930903 -0.7108944582
H 5.665924514 3.1697867236 0.6038777952
H 4.0879191701 3.2144943769 -0.240261388
H 4.5886723447 2.7619824859 2.6916266341
H 2.9879477685 2.8743761073 1.8953118355
H 3.7809318772 0.3617027974 2.8623014364
H 5.2274114168 -2.8688821693 -2.162399006
H 6.1089031757 -1.8871011329 -3.4016781764
H -2.6983483118 4.8389872915 -1.7490488184
H -2.1098956215 3.2984852052 -2.4950266605
H -1.3313107683 3.9236085919 -0.9980654417
H -0.8740629638 -1.9233139661 -1.0192171986
H -1.1302653943 -3.616235341 -0.4470059522
H 0.2612553741 -2.8289543303 1.7181628667
H 1.1293376785 -3.2201199609 0.1885241425
$end

$rem
JOBTYPE                   OPT
METHOD                    B3LYP
DFT_D                     d3_op
BASIS                     STO-3G
GEOM_OPT_MAX_CYCLES       100
GEOM_OPT_TOL_GRADIENT     300
GEOM_OPT_TOL_DISPLACEMENT 1200
GEOM_OPT_TOL_ENERGY       100
SYMMETRY                  False
THRESH                    12
SCF_CONVERGENCE           8
MAX_SUB_FILE_NUM          128
MEM_STATIC                400
MEM_TOTAL                 4000
$end
