$molecule
0  1
O -3.94934 -3.66094 2.70899
C -3.26408 -4.56952 2.26188
C -3.36658 -6.02376 2.66595
C -2.44047 -6.50644 3.79431
C -1.64206 -5.44176 4.5134
O -1.07614 -4.59333 3.60492
C -0.18921 -3.64056 4.20061
C -0.65122 -3.30495 5.61484
O 0.24387 -2.35158 6.20881
C -0.28145 -1.6045 7.21133
C 0.75383 -0.77154 7.92899
C 2.21103 -1.11152 7.58364
C 2.41608 -1.95657 6.34245
O 2.66669 -1.52674 5.22576
O -2.33989 -4.28213 1.3063
O 2.66701 -3.27162 6.60651
O -1.47843 -1.51979 7.45587
C 3.12553 -4.22037 5.71242
C 0.69386 0.72569 7.59279
C 1.31805 1.52823 8.7325
C 2.78043 1.16729 8.56371
C 2.71036 0.32146 7.28589
O 1.63898 0.88391 6.565
H 0.56984 -0.93059 9.01571
H 2.77962 -1.57031 8.42341
H -0.33488 1.0878 7.37642
H 1.18614 2.6056 8.48309
H 0.89479 1.3312 9.74096
H 3.35293 2.10416 8.38305
H 3.23175 0.60047 9.40659
H 3.69728 0.32331 6.77209
O -1.00483 -5.90405 5.45417
C -2.11604 -3.02015 0.79664
C -4.73862 -6.32654 3.3159
C -5.05807 -7.81666 3.20311
C -4.08146 -8.38867 4.20603
C -3.47795 -7.09791 4.76887
O -4.52649 -6.16638 4.69592
H -3.30947 -6.62984 1.73377
H -1.71294 -7.26266 3.42126
H -1.80168 -2.32917 1.60755
H -5.57227 -5.73359 2.87878
H -6.09082 -7.95974 3.59499
H -4.99403 -8.24305 2.17898
H -4.65862 -8.92605 4.99119
H -3.30095 -9.05727 3.78247
H -3.06578 -7.28581 5.78439
H -3.03831 -2.63428 0.31217
H -1.30832 -3.07219 0.03823
H 2.40302 -5.06095 5.67065
H 4.09834 -4.61434 6.07157
H 3.2672 -3.81232 4.68922
H -1.66045 -2.85307 5.46934
H -0.74956 -4.04591 6.42137
H -0.17078 -2.72041 3.57909
H 0.83154 -4.06503 4.21688
$end

$opt
CONSTRAINT
tors           1           2           3           4     -93.007
tors           3           4           5           6     -45.977
tors           4           5           6           7    -173.814
tors           5           6           7           8     -30.821
tors           6           7           8           9    +179.851
tors           7           8           9          10    +156.350
tors           8           9          10          11    +171.488
tors           9          10          11          12     -10.938
tors          11          12          13          14     +95.423
ENDCONSTRAINT
$end

$rem
JOBTYPE                   OPT
METHOD                    B3LYP
DFT_D                     d3_op
BASIS                     STO-3G
GEOM_OPT_MAX_CYCLES       100
GEOM_OPT_TOL_GRADIENT     300
GEOM_OPT_TOL_DISPLACEMENT 1200
GEOM_OPT_TOL_ENERGY       100
SYMMETRY                  False
THRESH                    12
SCF_CONVERGENCE           8
MAX_SUB_FILE_NUM          128
MEM_STATIC                400
MEM_TOTAL                 4000
$end
