$molecule
0  1
O -4.3141521384 -2.5669058154 -1.2865151856
C -3.7439346413 -1.6424900187 -0.6695992214
C -4.412516392 -0.6548790993 0.3570105884
C -3.9199594876 0.8554970782 0.3239174499
C -2.5507985311 1.192969357 -0.4005170683
O -1.4672430677 1.4477624932 0.5402331637
C -0.7979094771 0.2071053163 0.9800391468
C 0.6044237188 0.0419932037 0.2622208456
O 1.7153427348 0.3687834421 1.1908017647
C 2.5361847516 1.4142533931 0.6392480141
C 4.0727184506 1.0970841282 0.4632130117
C 4.8034097527 -0.1832500607 1.0367756087
C 4.1158528568 -1.5989761081 1.0671885842
O 4.6770012541 -2.6259178607 1.5171713619
O -2.3482505091 -1.3598519875 -0.7956360282
O 2.9441210841 -1.6480941047 0.2500637608
O 2.0620109191 2.5016590993 0.2368256569
C 2.4725469048 -3.0480774949 0.1220626661
C 4.5712614339 1.1029130042 -1.0617173186
C 5.9300797535 1.9005174985 -1.0703866065
C 6.829978013 0.9153070016 -0.2341585645
C 5.8938434223 -0.3549448675 -0.1239852092
O 5.0233296979 -0.2808119312 -1.3239297346
H 4.5656220637 1.9575208914 0.9554282774
H 5.2549317094 0.0113951665 2.0256888538
H 3.8139893248 1.4218466928 -1.8039712303
H 6.3039035004 2.0078116924 -2.1016519289
H 5.8424390464 2.899635276 -0.6149998702
H 7.7631434216 0.6633709436 -0.7619539134
H 7.0862113776 1.3177133895 0.7590188553
H 6.4264571073 -1.3253059916 -0.0890975625
O -2.437048128 1.47899745 -1.6101552967
C -1.7153047627 -2.2541134506 -1.790696243
C -5.9228133069 -0.4740657035 -0.0917146489
C -6.730388632 0.2948787392 1.0258126463
C -6.2603212163 1.7777270425 0.7827951895
C -5.1805584402 1.5625338203 -0.3478281704
O -5.7906842578 0.5107052413 -1.1918123851
H -4.3132964676 -1.0825118521 1.3723815922
H -3.7988966252 1.2079711495 1.3641122355
H -2.2189304961 -2.1806253652 -2.7753756222
H -6.3823570918 -1.4109948108 -0.4629605201
H -7.8143981497 0.1803224393 0.8682699681
H -6.4807648163 -0.0686180874 2.0357127109
H -7.0857916416 2.4036801351 0.4074429921
H -5.8389517962 2.2491858369 1.6851038613
H -4.9360484232 2.4540625222 -0.9572666773
H -1.7379838333 -3.3115927197 -1.4561783119
H -0.6673377875 -1.9141559201 -1.881581264
H 1.5303302988 -3.1799689606 0.6909443901
H 3.2465876013 -3.7334104271 0.522551636
H 2.2870224155 -3.2496844758 -0.9503030763
H 0.7488288663 -1.0120294939 -0.0503215519
H 0.6148570926 0.6912979307 -0.6379297251
H -1.4192543939 -0.6834437051 0.7474893725
H -0.6266996565 0.2803353994 2.0761312797
$end

$rem
JOBTYPE                   OPT
METHOD                    B3LYP
DFT_D                     d3_op
BASIS                     STO-3G
GEOM_OPT_MAX_CYCLES       100
GEOM_OPT_TOL_GRADIENT     300
GEOM_OPT_TOL_DISPLACEMENT 1200
GEOM_OPT_TOL_ENERGY       100
SYMMETRY                  False
THRESH                    12
SCF_CONVERGENCE           8
MAX_SUB_FILE_NUM          128
MEM_STATIC                400
MEM_TOTAL                 4000
$end
