$molecule
0  1
O -3.6261124021 -1.8210981578 2.283400595
C -3.0130036875 -1.4988297481 1.2437875279
C -3.5871508492 -0.7345372819 -0.0016048845
C -3.5829461239 0.852849505 0.1075037099
C -2.879587518 1.3992410047 1.4174106913
O -2.1124192558 2.6103244917 1.1821355348
C -0.7141825677 2.3539321567 1.6138354804
C 0.1640882021 1.6691683965 0.4907390625
O 1.3282088629 2.5387550323 0.2578282144
C 2.445705084 1.8813511309 -0.4062647127
C 3.1578366443 0.7352212806 0.4394964302
C 2.4951804936 -0.6958623416 0.3393996197
C 1.6787741272 -0.7813140065 -1.0041744489
O 1.1482071283 0.190753052 -1.5919765892
O -1.6068929647 -1.7086196544 1.0459734166
O 1.5419906304 -2.1327530245 -1.4281124578
O 2.9880248786 2.4544781595 -1.3750119975
C 0.7367961798 -2.1854523682 -2.6725652085
C 4.6455178535 0.4124703487 -0.0067759437
C 5.4012263742 -0.1202466734 1.2702095219
C 4.6903587282 -1.5125198442 1.4673277381
C 3.7906390786 -1.592491976 0.1696159283
O 4.5352570372 -0.8059330927 -0.8450843145
H 3.1412868932 1.0795820277 1.4901962326
H 1.8625330276 -0.9643032584 1.2047113623
H 5.1401955829 1.2278696713 -0.5695874527
H 6.4745470415 -0.2462332278 1.0551750305
H 5.2879423197 0.5462526243 2.1400036107
H 5.4138948072 -2.3425182367 1.4927836431
H 4.0823709844 -1.5482402673 2.3859618171
H 3.5823537371 -2.6127020213 -0.2060717048
O -2.9229085196 0.8451943235 2.5363090796
C -1.0227646404 -2.3660351985 2.2356371103
C -2.7471495378 -0.9361562739 -1.3351977471
C -3.692015929 -0.613913536 -2.5580097519
C -3.7880960775 0.9543007359 -2.4573950878
C -2.838435192 1.2456387675 -1.2298713014
O -1.7935220627 0.1989917612 -1.3432516893
H -4.6251045994 -1.0873407482 -0.1389837339
H -4.6229006667 1.2316119541 0.1033939985
H -1.4619403154 -3.3700237911 2.4070957272
H -2.2033572067 -1.8982018453 -1.3906961985
H -3.220176138 -0.92913057 -3.5023967089
H -4.6720224967 -1.1091292215 -2.4693799532
H -3.4002161693 1.4431819573 -3.3651098502
H -4.8166938762 1.3065560371 -2.2783864162
H -2.3835009227 2.254272534 -1.2043953527
H -1.1715667419 -1.7570902039 3.151016849
H 0.0581941687 -2.4697940594 2.0268406734
H 0.4653169154 -3.2470882501 -2.8183346705
H 1.3266629868 -1.8310828404 -3.5425729128
H -0.1757033956 -1.5615910668 -2.5865303164
H 0.4572823747 0.6649064614 0.8570206101
H -0.4266890113 1.5064079974 -0.4365066011
H -0.7018971419 1.7500650455 2.5456685094
H -0.2750215348 3.3502165124 1.8330558401
$end

$rem
JOBTYPE                   OPT
METHOD                    B3LYP
DFT_D                     d3_op
BASIS                     STO-3G
GEOM_OPT_MAX_CYCLES       100
GEOM_OPT_TOL_GRADIENT     300
GEOM_OPT_TOL_DISPLACEMENT 1200
GEOM_OPT_TOL_ENERGY       100
SYMMETRY                  False
THRESH                    12
SCF_CONVERGENCE           8
MAX_SUB_FILE_NUM          128
MEM_STATIC                400
MEM_TOTAL                 4000
$end
