$molecule
0  1
O -1.7253295 -2.8442442668 0.5930188863
C -2.5330249969 -2.0055671727 0.1352047324
C -2.5720078401 -0.4711018036 0.4729229641
C -1.9932753202 0.4611867401 -0.6738306561
C -1.2840722881 -0.3013205228 -1.8521195182
O -0.1115915154 0.4413052408 -2.3121040334
C 1.0749837726 -0.2722112588 -1.7700006701
C 2.2895301149 0.2114508897 -2.6491787366
O 3.6515053172 0.4706475497 -2.1124283634
C 3.8349119772 0.8841846031 -0.746196044
C 3.5018029342 -0.0570004054 0.5014997924
C 2.8593545868 0.6897661521 1.7564678433
C 2.1634397174 2.0583629718 1.4046702607
O 2.7122495239 3.102853739 0.9942675703
O -3.6436924272 -2.3356548839 -0.7027225351
O 0.744274076 1.9452153316 1.5946777373
O 4.5556623594 1.890785223 -0.5568891553
C 0.0919007627 3.2342594861 1.2708950985
C 2.6558934227 -1.39344704 0.4595281502
C 3.1771573177 -2.337809111 1.6093980264
C 2.6099576544 -1.6131773448 2.8852294375
C 1.8228241109 -0.4103711302 2.2344537419
O 1.3193531165 -0.9752493504 0.9553163172
H 4.5259169052 -0.3475999271 0.8094501675
H 3.632406284 0.890889655 2.519190221
H 2.5852591742 -1.8816037554 -0.5286997369
H 2.7436586502 -3.3440324807 1.4935914596
H 4.2754949316 -2.4229814699 1.6158487634
H 1.9221852709 -2.2645791359 3.4472229055
H 3.4039585681 -1.2650254707 3.565159878
H 0.9809934173 -0.0143056599 2.8323756092
O -1.6209136466 -1.3961933731 -2.3472630156
C -3.5833909385 -3.7654406136 -1.0793758199
C -4.0596648915 0.0741024751 0.5567112022
C -4.0366172645 1.5288885389 1.1796152029
C -3.5666856593 2.3864348753 -0.0533719715
C -3.3062606129 1.2536510869 -1.119157605
O -4.4069121083 0.3003302917 -0.8662281637
H -2.0083474699 -0.3221989734 1.4110701297
H -1.2454106953 1.1579292574 -0.2574156336
H -3.5162787245 -4.4228205555 -0.1884998593
H -4.7796330009 -0.6260090959 1.0220864877
H -5.0421120875 1.8228718658 1.5198332875
H -3.3412198524 1.5984392281 2.0315190188
H -4.3649656382 3.06099556 -0.4025825768
H -2.6658181105 2.9841419107 0.1542230096
H -3.3120649136 1.5862603188 -2.1754196982
H -2.7132533896 -3.96698046 -1.7371604454
H -4.5184365139 -3.9754056529 -1.6303836492
H -0.95937758 3.1338320094 1.5978554532
H 0.1234086989 3.4420535353 0.1812929126
H 0.5695335791 4.0817735958 1.8024967867
H 2.4551334709 -0.5205656891 -3.4669503762
H 1.9485261625 1.161332754 -3.1248939564
H 0.9506250525 -1.3707118669 -1.8798819072
H 1.1679560325 -0.0597798152 -0.6777980143
$end

$rem
JOBTYPE                   OPT
METHOD                    B3LYP
DFT_D                     d3_op
BASIS                     STO-3G
GEOM_OPT_MAX_CYCLES       100
GEOM_OPT_TOL_GRADIENT     300
GEOM_OPT_TOL_DISPLACEMENT 1200
GEOM_OPT_TOL_ENERGY       100
SYMMETRY                  False
THRESH                    12
SCF_CONVERGENCE           8
MAX_SUB_FILE_NUM          128
MEM_STATIC                400
MEM_TOTAL                 4000
$end
