$molecule
0  1
O 5.5650426634 -2.1331723534 -1.1307242981
C 4.4753389366 -1.7204713084 -0.6781123331
C 3.7032495451 -0.4278274812 -1.14570412
C 2.9866346064 0.3903579765 0.0064020497
C 2.6115117304 -0.3989346816 1.3212679725
O 1.5831374204 -1.426908753 1.120166134
C 0.2619074168 -0.760606396 1.123417391
C -0.8240038517 -1.8865074486 1.0083462903
O -2.1763300077 -1.2802214674 1.0027840452
C -2.6520622588 -1.1271599984 -0.34330277
C -4.145099045 -0.658137523 -0.2779678577
C -4.5075683206 0.5229320825 0.7047636554
C -3.4246486744 1.6648372584 0.8579865608
O -3.6749302959 2.8406812049 1.2040597294
O 3.7746804091 -2.3463776122 0.3946769918
O -2.1436904594 1.2590119128 0.3664262005
O -1.9902714595 -1.4036591402 -1.3663645034
C -1.2204846455 2.4178257737 0.3585461414
C -4.7990864238 -0.1588609524 -1.6386299529
C -6.2986026368 -0.6418473711 -1.6154651307
C -6.8542803833 0.2323139696 -0.4287313099
C -5.6451676425 1.2165516771 -0.1654069773
O -4.945814874 1.307890785 -1.47505626
H -4.7033834061 -1.5496295444 0.0675243577
H -4.8419131476 0.1682388005 1.6962868907
H -4.2151239176 -0.4015871341 -2.5479372032
H -6.795640324 -0.3870308576 -2.5654434805
H -6.3993024627 -1.7247519474 -1.439392662
H -7.7562089813 0.7932091571 -0.7195925474
H -7.0880663728 -0.3703727264 0.4639750957
H -5.9205040812 2.2260052069 0.1975298617
O 3.1443924067 -0.2216238028 2.4346745081
C 4.5260669664 -3.5168520102 0.9012433988
C 4.8192851459 0.6204717409 -1.5631168151
C 4.1611360328 1.9160370103 -2.1820680787
C 3.67677518 2.6715093869 -0.8874280581
C 4.0028789546 1.5919510658 0.2152672542
O 5.3105606974 1.0581222228 -0.2320344036
H 3.0054122657 -0.6840473985 -1.9642101639
H 2.0364158484 0.7835651671 -0.3986644213
H 5.5540317594 -3.2375084378 1.209521862
H 5.6435758004 0.1700257343 -2.1499133482
H 4.9081561547 2.5020854383 -2.7401040335
H 3.3303290833 1.6682961908 -2.8624710632
H 4.2656245339 3.5866091618 -0.7131403914
H 2.6081937754 2.9382084894 -0.9194571972
H 4.0674660514 1.9600842672 1.2577931214
H 4.5891629741 -4.316828152 0.1353668479
H 3.9582116967 -3.8834147227 1.7759712204
H -0.3401301326 2.105889526 -0.2327729279
H -0.89848404 2.6842689445 1.3862862594
H -1.6902115214 3.3073885208 -0.1068330074
H -0.656234689 -2.4671920728 0.0766283146
H -0.773647192 -2.5582408475 1.8890347155
H 0.1407902508 -0.0718575456 0.2582596225
H 0.0897424409 -0.1756991937 2.0553209995
$end

$rem
JOBTYPE                   OPT
METHOD                    B3LYP
DFT_D                     d3_op
BASIS                     STO-3G
GEOM_OPT_MAX_CYCLES       100
GEOM_OPT_TOL_GRADIENT     300
GEOM_OPT_TOL_DISPLACEMENT 1200
GEOM_OPT_TOL_ENERGY       100
SYMMETRY                  False
THRESH                    12
SCF_CONVERGENCE           8
MAX_SUB_FILE_NUM          128
MEM_STATIC                400
MEM_TOTAL                 4000
$end
