$molecule
0  1
O -4.6326131352 1.9101289859 1.2048152451
C -4.2019240086 1.5999152555 0.0733404688
C -4.5746478455 0.3458504214 -0.789690112
C -3.5798839051 -0.8836846954 -0.6011208253
C -2.5142207373 -0.6602561951 0.5318853896
O -1.5835593094 0.3317007151 0.0860842207
C -0.5178886772 0.5236360929 1.1012104758
C 0.4533258769 1.6270892976 0.5403252181
O 1.8303286057 1.4045392599 1.0409977236
C 2.5851407596 0.6319618385 0.0914952069
C 4.1104094721 0.8281172321 0.3872487044
C 4.8887804643 -0.5473140408 0.5321717061
C 3.9505439597 -1.8018065614 0.4297912092
O 4.0991725348 -2.8077484797 -0.2939839938
O -3.2836637934 2.4010961178 -0.680945197
O 2.8628696368 -1.6183800498 1.3485764395
O 2.0730661874 0.0263549861 -0.875303703
C 1.8788823651 -2.7148917299 1.1975879894
C 4.8476414422 1.4398566133 -0.8836791307
C 6.2903564915 1.911926938 -0.4448209072
C 7.0439801832 0.533979989 -0.3352169346
C 5.884168764 -0.4741170148 -0.6955219068
O 5.1043675555 0.2515338763 -1.7266891653
H 4.2205336911 1.4625285639 1.2835730837
H 5.4283946907 -0.5929137867 1.4961451599
H 4.2553445377 2.1904132393 -1.4423494523
H 6.7352414439 2.5570818522 -1.2189210446
H 6.2732972372 2.464708004 0.5081123638
H 7.8607347985 0.4619480194 -1.0709888431
H 7.4557064745 0.3524445118 0.670357636
H 6.1997250871 -1.4652252348 -1.0758061524
O -2.4337699975 -1.2499125186 1.6305156059
C -2.8608318887 3.5717319106 0.1207030814
C -5.9486595167 -0.3142575484 -0.3458274355
C -6.4576422975 -1.2212003491 -1.5332205967
C -5.4574881839 -2.4338583644 -1.4349114447
C -4.5958266456 -2.0203679694 -0.1763289556
O -5.5550275048 -1.2958986926 0.6899387876
H -4.595442724 0.6588956058 -1.8488690397
H -3.0509656526 -1.1103643167 -1.544632168
H -2.4008420034 3.262924205 1.0813260451
H -6.6877980894 0.4016682775 0.0629265214
H -7.496293886 -1.5409188114 -1.3524596982
H -6.4102458422 -0.7057846745 -2.5057315594
H -5.9860862563 -3.3820858596 -1.2486894466
H -4.8375992728 -2.5459914984 -2.3390171598
H -4.1287619912 -2.854636517 0.3820603544
H -3.7132567123 4.2464037143 0.3422923086
H -2.1144370657 4.1089821702 -0.4927227639
H 1.1334830152 -2.5748304274 2.0022460138
H 2.3560322668 -3.7104508092 1.2990055089
H 1.3747631726 -2.6619357717 0.210383526
H 0.4272343073 1.5788985363 -0.5695098314
H 0.1499147207 2.6359866641 0.8834767935
H 0.0485584674 -0.4212469808 1.2514316326
H -0.9499992543 0.8210516731 2.0806605795
$end

$rem
JOBTYPE                   OPT
METHOD                    B3LYP
DFT_D                     d3_op
BASIS                     STO-3G
GEOM_OPT_MAX_CYCLES       100
GEOM_OPT_TOL_GRADIENT     300
GEOM_OPT_TOL_DISPLACEMENT 1200
GEOM_OPT_TOL_ENERGY       100
SYMMETRY                  False
THRESH                    12
SCF_CONVERGENCE           8
MAX_SUB_FILE_NUM          128
MEM_STATIC                400
MEM_TOTAL                 4000
$end
