$molecule
0  1
O -3.94934 -3.66094 2.70899
C -3.26408 -4.56952 2.26188
C -3.36658 -6.02376 2.66595
C -2.79805 -6.41284 4.04045
C -2.35119 -5.27547 4.93196
O -1.3659 -4.56029 4.31296
C -0.88029 -3.46991 5.10322
C 0.20314 -2.71166 4.34338
O 1.19173 -2.21953 5.26174
C 2.25348 -3.03737 5.46901
C 3.27691 -2.4461 6.40904
C 3.65914 -3.34195 7.59632
C 3.25337 -4.79772 7.48319
O 3.92795 -5.7516 7.84323
O -2.4182 -4.29834 1.23312
O 1.92166 -5.02084 7.30753
O 2.44665 -4.08527 4.86104
C 1.32782 -6.26642 7.29523
C 4.65905 -2.23196 5.75991
C 5.41109 -1.1363 6.51267
C 5.69935 -1.84221 7.82283
C 5.19453 -3.25307 7.49152
O 5.39973 -3.37723 6.10476
H 2.89677 -1.45668 6.7556
H 3.24241 -2.96305 8.55522
H 4.60408 -1.99072 4.67576
H 6.37256 -0.98227 5.97171
H 4.88728 -0.16074 6.60607
H 6.79921 -1.83351 7.99006
H 5.17255 -1.4297 8.71062
H 5.7115 -4.00237 8.13007
O -2.83701 -5.00204 6.02445
C -2.21009 -3.03964 0.70942
C -4.82405 -6.49296 2.8132
C -4.90447 -8.01002 2.6499
C -4.27407 -8.46794 3.94881
C -4.03352 -7.11882 4.63506
O -5.09974 -6.31815 4.18246
H -2.85844 -6.61254 1.86792
H -1.92791 -7.10132 3.9525
H -1.81069 -2.36141 1.49373
H -5.51719 -5.99067 2.10306
H -5.98239 -8.28934 2.66218
H -4.43211 -8.40734 1.72581
H -5.02931 -9.05614 4.51638
H -3.33762 -9.05707 3.84192
H -3.95836 -7.26234 5.73525
H -3.16083 -2.63002 0.30615
H -1.47131 -3.10634 -0.11529
H 0.23754 -6.14894 7.12773
H 1.4863 -6.77767 8.26861
H 1.75098 -6.88173 6.47276
H 0.66146 -3.38956 3.58814
H -0.23676 -1.89088 3.73878
H -0.4079 -3.92437 6.00354
H -1.67539 -2.76684 5.43925
$end

$opt
CONSTRAINT
tors           1           2           3           4     -74.319
tors           3           4           5           6     -59.885
tors           4           5           6           7    -179.437
tors           5           6           7           8    -179.395
tors           6           7           8           9    -145.809
tors           7           8           9          10     +92.274
tors           8           9          10          11    +178.190
tors           9          10          11          12    +126.828
tors          11          12          13          14    +140.699
ENDCONSTRAINT
$end

$rem
JOBTYPE                   OPT
METHOD                    B3LYP
DFT_D                     d3_op
BASIS                     STO-3G
GEOM_OPT_MAX_CYCLES       100
GEOM_OPT_TOL_GRADIENT     300
GEOM_OPT_TOL_DISPLACEMENT 1200
GEOM_OPT_TOL_ENERGY       100
SYMMETRY                  False
THRESH                    12
SCF_CONVERGENCE           8
MAX_SUB_FILE_NUM          128
MEM_STATIC                400
MEM_TOTAL                 4000
$end
