$molecule
0  1
O -0.3916445487 0.142579154 -1.8919169418
C -0.1203524157 -0.2328942895 -0.7461711036
C 0.8098969668 0.4319738432 0.2437733416
C 1.975902851 -0.3802696485 0.8104270448
C 2.1550616129 -1.6863397054 0.2521294784
O 3.2138077476 -1.6718058167 -0.5681612758
C 3.5690161005 -0.3909333183 -1.2364731735
C 2.2081353053 0.1049374498 -1.8193464707
O 1.278255131 0.3807085431 -0.6961414436
C -0.0464608562 0.1148745997 -0.9289891289
C -0.7459960399 -0.4618855925 0.2696405056
C -2.0191169588 0.2925246266 0.7159143841
C -2.5843795297 1.2740242365 -0.2859982747
O -2.0057642554 1.6489663401 -1.3003421968
O 0.1184324113 -1.9451994518 -1.1757791691
O -3.7812829177 1.8396048536 0.0313162194
O -0.2575760407 1.9076229685 -1.4416230013
C -4.4724223971 2.7014912927 -0.7990763971
C -1.5714493074 -1.965495602 0.5866632599
C -1.7978316654 -2.3992151741 2.0666905745
C -2.8677272873 -1.4349229098 2.4366775041
C -3.1086898709 -0.7658247412 1.0685756312
O -2.8754595331 -1.7723047599 0.1441122346
H -0.3694190389 -0.8368184487 1.3791731927
H -1.8504236125 0.9194595257 1.6206467469
H -1.0939268305 -2.9253157611 0.3164350088
H -2.2178805311 -3.4357798815 2.0778731099
H -0.8902709711 -2.415923613 2.7166866691
H -3.7504296486 -2.0398455184 2.7437454489
H -2.5933104292 -0.730197356 3.2486365419
H -4.1396831837 -0.3574061004 1.0726203966
O 1.7974745774 -2.7205305159 0.803648903
C -0.7865515165 -2.4994496627 -2.1240885347
C 1.6920988796 2.1577227198 0.4529314267
C 1.9233368813 2.7844633878 1.7886234535
C 2.9175956985 1.7779778337 2.3358978681
C 3.108396892 0.7875498436 1.1709368904
O 3.0236622778 1.7734940994 0.1545973526
H 0.4107768486 0.9887646721 1.2545120034
H 1.7182854451 -0.6765007738 1.853947116
H -0.3124605313 -2.7477720431 -3.0865470082
H 1.3394243021 2.9475169269 -0.2480163289
H 2.4440519951 3.7594277446 1.5616334778
H 0.9803216436 2.9767537303 2.3223868481
H 3.8930014352 2.3404492566 2.364796634
H 2.738449193 1.4071266598 3.3519877595
H 4.107723312 0.3259028452 1.3302624441
H -1.6265218255 -1.7877635337 -2.3293621222
H -1.3177581123 -3.3971381577 -1.7396231832
H -5.4213560092 2.9961205867 -0.3063144899
H -4.7138733118 2.1929513747 -1.7579116322
H -3.8685519024 3.6116439395 -0.998560959
H 2.4276371191 1.0256764089 -2.4028993434
H 1.8013495474 -0.648407935 -2.5384196563
H 4.144397409 -0.646778939 -2.152881024
H 4.3942463955 0.1908889549 -0.7966561294
$end

$rem
JOBTYPE                   OPT
METHOD                    B3LYP
DFT_D                     d3_op
BASIS                     STO-3G
GEOM_OPT_MAX_CYCLES       100
GEOM_OPT_TOL_GRADIENT     300
GEOM_OPT_TOL_DISPLACEMENT 1200
GEOM_OPT_TOL_ENERGY       100
SYMMETRY                  False
THRESH                    12
SCF_CONVERGENCE           8
MAX_SUB_FILE_NUM          128
MEM_STATIC                400
MEM_TOTAL                 4000
$end
