$molecule
0  1
O -2.9548931998 1.5466229652 2.1377311883
C -3.084725737 1.6735680274 0.9028866093
C -4.286163686 1.1975522146 0.0028979207
C -4.0457239825 -0.2022060896 -0.7025257813
C -2.6021236654 -0.7647732773 -0.4848931513
O -2.3083873715 -1.6373700221 -1.5743574541
C -0.9584659542 -2.2674269368 -1.5263667087
C 0.2086858761 -1.3112264427 -1.0759670525
O 1.4445000027 -2.1223090374 -1.0958587358
C 2.407564723 -1.6930195552 -0.0918146691
C 2.6910805718 -0.1406894937 -0.1033048942
C 3.7070459597 0.5192986811 0.9112895592
C 5.0667088195 -0.2051170916 1.2749046763
O 6.0358318878 0.3737665137 1.817722818
O -2.1202791856 2.3063732487 0.0453007992
O 5.1395204182 -1.5254734129 0.750246528
O 2.9287645562 -2.5690809645 0.6249215776
C 6.4762311298 -2.1047708498 1.0219934905
C 3.137318785 0.5181670996 -1.4912430417
C 2.3356760343 1.8721860895 -1.6031031003
C 2.9872986284 2.6757148389 -0.4155740786
C 4.18786822 1.7296914943 -0.0094152951
O 4.5186591458 0.9953485408 -1.2594733574
H 1.7126662246 0.3057303919 0.1524280399
H 3.2040845208 0.8466117716 1.8391402307
H 3.089420389 -0.1524955653 -2.3710350702
H 2.5334421508 2.3569679806 -2.5728057962
H 1.2481729268 1.7377738214 -1.486919304
H 3.36178593 3.6580284673 -0.7434826034
H 2.2891068766 2.8283579427 0.4232849739
H 5.0840622462 2.2459481017 0.3862205172
O -1.862328952 -0.526204543 0.4989300204
C -0.9127331685 2.6579102438 0.8240819642
C -5.5356496695 0.8527319628 0.9167994424
C -6.8127377263 0.6872962219 0.0017422694
C -6.5539686865 -0.7300290084 -0.6321773207
C -5.1584140854 -1.0962036891 0.0087198806
O -5.2433598165 -0.5286358419 1.3703969622
H -4.5069339543 1.9822585599 -0.7422790136
H -4.2293159897 -0.1451685165 -1.7900860269
H -0.4175452955 1.7498847577 1.2268689986
H -5.6553212878 1.5230732293 1.7895166645
H -7.7298703179 0.6965543524 0.611580408
H -6.8842527089 1.4842115142 -0.7558135616
H -7.3189901748 -1.4582571332 -0.3182774908
H -6.5163962197 -0.7082994822 -1.7329892746
H -4.9246300506 -2.178013051 0.0469481355
H -1.1490685945 3.3329956872 1.671692098
H -0.2313098365 3.1719769941 0.1211823288
H 6.458909872 -3.1169453195 0.578029345
H 6.6748824625 -2.179659081 2.1103458285
H 7.2831302093 -1.5036674809 0.5552640928
H 0.2705567057 -0.4510013824 -1.7799391551
H -0.0656019437 -0.9283796009 -0.0711059838
H -0.7803411288 -2.6439455657 -2.5540101491
H -0.9842228839 -3.1379286262 -0.8337510352
$end

$rem
JOBTYPE                   OPT
METHOD                    B3LYP
DFT_D                     d3_op
BASIS                     STO-3G
GEOM_OPT_MAX_CYCLES       100
GEOM_OPT_TOL_GRADIENT     300
GEOM_OPT_TOL_DISPLACEMENT 1200
GEOM_OPT_TOL_ENERGY       100
SYMMETRY                  False
THRESH                    12
SCF_CONVERGENCE           8
MAX_SUB_FILE_NUM          128
MEM_STATIC                400
MEM_TOTAL                 4000
$end
