$molecule
0  1
O -3.94934 -3.66094 2.70899
C -3.26408 -4.56952 2.26188
C -3.36658 -6.02376 2.66595
C -2.88795 -7.0714 1.64751
C -2.19596 -6.54267 0.4107
O -1.28355 -5.5888 0.76149
C 0.06093 -5.94333 0.42099
C 0.99615 -4.76638 0.67849
O 0.23255 -3.6036 1.03589
C 0.90296 -2.42605 0.9805
C 0.04891 -1.24379 1.37231
C 0.6372 -0.35955 2.4815
C 2.10917 -0.56394 2.77859
O 2.93717 0.32663 2.90452
O -3.04891 -4.24363 0.9532
O 2.45769 -1.812 3.19414
O 2.04241 -2.31195 0.54201
C 3.72522 -2.17761 3.59674
C -0.12369 -0.20277 0.2472
C -1.40948 0.58932 0.47366
C -1.035 1.39044 1.70458
C 0.45001 1.0236 1.82859
O 0.85748 0.77285 0.50466
H -0.958 -1.62167 1.65983
H 0.09459 -0.49267 3.44317
H -0.11721 -0.64918 -0.77124
H -1.5046 1.28669 -0.38976
H -2.34526 -0.00039 0.5622
H -1.17304 2.4701 1.47465
H -1.58657 1.12118 2.63152
H 0.99868 1.82798 2.36562
O -2.42527 -6.88825 -0.73894
C -3.10784 -3.00872 0.31977
C -2.42174 -6.3316 3.84481
C -2.90754 -7.57361 4.59158
C -2.55295 -8.65652 3.59436
C -1.85634 -7.82049 2.51556
O -1.23829 -6.78633 3.24075
H -4.41541 -6.19202 2.99909
H -3.69304 -7.76218 1.31216
H -3.32528 -2.17248 1.01586
H -2.31326 -5.47862 4.55066
H -2.26104 -7.69509 5.4902
H -3.97284 -7.54676 4.90671
H -1.82474 -9.34911 4.07233
H -3.41351 -9.2314 3.18901
H -1.18285 -8.46335 1.90702
H -3.89616 -3.0389 -0.45987
H -2.13627 -2.80838 -0.17533
H 3.72215 -3.25144 3.87487
H 4.03506 -1.57968 4.48025
H 4.44758 -2.0252 2.76651
H 1.65682 -5.00666 1.54059
H 1.63686 -4.61325 -0.22064
H 0.09021 -6.13523 -0.67671
H 0.41428 -6.86469 0.93312
$end

$opt
CONSTRAINT
tors           1           2           3           4    +155.213
tors           3           4           5           6     +45.553
tors           4           5           6           7    +117.849
tors           5           6           7           8    +172.863
tors           6           7           8           9      -6.746
tors           7           8           9          10    -164.971
tors           8           9          10          11    -179.765
tors           9          10          11          12    +126.402
tors          11          12          13          14    +133.048
ENDCONSTRAINT
$end

$rem
JOBTYPE                   OPT
METHOD                    B3LYP
DFT_D                     d3_op
BASIS                     STO-3G
GEOM_OPT_MAX_CYCLES       100
GEOM_OPT_TOL_GRADIENT     300
GEOM_OPT_TOL_DISPLACEMENT 1200
GEOM_OPT_TOL_ENERGY       100
SYMMETRY                  False
THRESH                    12
SCF_CONVERGENCE           8
MAX_SUB_FILE_NUM          128
MEM_STATIC                400
MEM_TOTAL                 4000
$end
