$molecule
0  1
O 2.2322742929 -0.5671879182 3.2892236864
C 2.4754159233 -0.5725232849 2.0615355679
C 2.9134437396 0.6978848629 1.244994592
C 3.5800592566 0.5415609842 -0.18891148
C 3.3188980945 -0.8102006387 -0.9491363141
O 1.9106013594 -1.0242829649 -1.0735104068
C 1.6484449489 -2.1884546456 -1.9539492868
C 0.0879378144 -2.3426631871 -2.0011186553
O -0.555913958 -1.0096171534 -2.0474163863
C -1.3338718968 -0.7747824123 -0.870726551
C -2.1613580395 0.5374651956 -1.0866329274
C -3.5341484225 0.5069987725 -0.3026080141
C -3.9519279993 -0.8971214054 0.2581454684
O -4.4186114979 -1.1531047559 1.388007818
O 2.479825461 -1.7575511252 1.2669334867
O -3.8831951374 -1.8473132873 -0.8174270416
O -1.3265866047 -1.5159332617 0.1378503328
C -4.2500132062 -3.1929846073 -0.3247830709
C -1.4457328654 1.7617262768 -0.3798033985
C -2.2175483252 3.0925095518 -0.7447805333
C -3.4705676622 3.0057507225 0.205495265
C -3.2565738858 1.5773896749 0.8374356525
O -1.7886475262 1.527281285 1.043567793
H -2.2957303343 0.6959719274 -2.1707641232
H -4.351893448 0.8461987144 -0.9656325196
H -0.3415993152 1.7822669816 -0.5390907223
H -1.5961515796 3.9741078274 -0.5205445228
H -2.4984230911 3.1237467281 -1.809829481
H -3.4365358196 3.7804303885 0.9885170942
H -4.4266311587 3.0902359308 -0.3353017018
H -3.7933089425 1.3741312636 1.7849445233
O 4.1892766866 -1.5599521177 -1.4439666698
C 2.0231047571 -2.9152403904 2.0688269613
C 1.7317847445 1.7200980862 0.9488062381
C 2.3529685564 3.1687264328 0.9335429309
C 3.2028586204 3.1112216826 -0.3910438314
C 2.7993038731 1.6944033815 -0.9649078937
O 1.4137751741 1.4955378503 -0.4768033484
H 3.6412366384 1.2022835853 1.9078650046
H 4.6703317188 0.7088129899 -0.1513175428
H 0.9546570398 -2.811142343 2.3485757601
H 0.8256506549 1.5904373817 1.5732879551
H 1.5534720815 3.9241929494 0.866172382
H 2.9624168111 3.3741751161 1.8277932116
H 2.9155081178 3.9088896217 -1.0942913573
H 4.2863788083 3.1812613558 -0.2033276117
H 2.8336794369 1.6061109975 -2.0682173899
H 2.623588853 -3.0377374481 2.9931641649
H 2.1504705945 -3.8008799934 1.419505556
H -4.2640691055 -3.8525502043 -1.2119926967
H -5.2482402777 -3.1958235113 0.1585086996
H -3.5039425856 -3.5702770634 0.4047687376
H -0.2134836216 -2.9074121837 -2.9081230015
H -0.2702456087 -2.8645668673 -1.0869950514
H 2.1199847682 -3.1141001691 -1.5568341375
H 2.0588956912 -2.0014090526 -2.9703178326
$end

$rem
JOBTYPE                   OPT
METHOD                    B3LYP
DFT_D                     d3_op
BASIS                     STO-3G
GEOM_OPT_MAX_CYCLES       100
GEOM_OPT_TOL_GRADIENT     300
GEOM_OPT_TOL_DISPLACEMENT 1200
GEOM_OPT_TOL_ENERGY       100
SYMMETRY                  False
THRESH                    12
SCF_CONVERGENCE           8
MAX_SUB_FILE_NUM          128
MEM_STATIC                400
MEM_TOTAL                 4000
$end
