$molecule
0  1
O -4.0529226416 0.9344203445 2.397952486
C -3.4644537188 0.5466441834 1.3635156457
C -2.8829238907 -0.891591978 1.1456419927
C -2.770962435 -1.4642047292 -0.3298438292
C -2.876214286 -0.4095834232 -1.4938038146
O -1.6594724637 0.3378979047 -1.5196222687
C -1.6084782727 1.2765847288 -2.6603422337
C -0.2275650639 1.9981027669 -2.4915377971
O 0.8605103791 0.9910120563 -2.4528479151
C 1.2999022226 0.8238805416 -1.0943732564
C 2.610045236 -0.0252901252 -1.0751599587
C 3.5097149037 0.2704186164 0.1945504086
C 2.8879168737 1.3116907245 1.1991094218
O 2.4109473574 1.0810552899 2.3298059248
O -3.2501248631 1.3831672389 0.2247751378
O 3.0774382414 2.6260882268 0.6493103643
O 0.7616177008 1.3818264726 -0.1116320019
C 2.4358275002 3.6276270236 1.5285294507
C 2.3223212416 -1.5790213313 -0.8808480197
C 3.6365801922 -2.3717975358 -1.2582782179
C 4.5390875149 -2.0774300789 -0.0028587157
C 3.5755156235 -1.1684467537 0.857154352
O 2.231477901 -1.7331827174 0.5862040163
H 3.1540481645 0.1605355986 -2.0183385958
H 4.507085885 0.6337170126 -0.1121444431
H 1.3977700275 -1.9365615468 -1.3715216282
H 3.4206098137 -3.4474446134 -1.3586535976
H 4.0837120131 -2.0120203203 -2.1986842395
H 4.78707913 -3.0018077916 0.5426915478
H 5.4752628826 -1.5588946743 -0.2642981367
H 3.7708259118 -1.1537929048 1.9467172978
O -3.8118789729 -0.2725296952 -2.3113979186
C -3.8276530252 2.7252189298 0.4617035066
C -1.3687008986 -1.0667514232 1.6498405566
C -1.1993088868 -2.5700123001 2.0973493727
C -1.2538107784 -3.2972599588 0.7023408933
C -1.3036980784 -2.0651794455 -0.287361516
O -0.5535370631 -1.004721723 0.4208586458
H -3.5325723914 -1.5554305835 1.744638442
H -3.5423757642 -2.233955783 -0.5091140038
H -3.3490133894 3.2269484208 1.3273214181
H -1.0272010936 -0.3086168401 2.3810087671
H -0.2184258349 -2.7076727845 2.5799690164
H -1.9906824666 -2.9019194287 2.7883350885
H -0.3482071037 -3.898394508 0.5238454523
H -2.1377254726 -3.9465125245 0.5946380255
H -0.8651179118 -2.2500291617 -1.2866273994
H -4.9207153827 2.6741108886 0.6430131616
H -3.6314336698 3.305369438 -0.4587248091
H 2.6328784278 4.6133830771 1.0682748923
H 2.8576835265 3.6054084105 2.5542799486
H 1.3410582913 3.4598538971 1.5940131298
H -0.0313707888 2.6682796998 -3.3539159742
H -0.2270611067 2.5675255054 -1.5381282363
H -2.4430766508 2.0116299518 -2.6255530109
H -1.6592090635 0.7332734728 -3.6296504235
$end

$rem
JOBTYPE                   OPT
METHOD                    B3LYP
DFT_D                     d3_op
BASIS                     STO-3G
GEOM_OPT_MAX_CYCLES       100
GEOM_OPT_TOL_GRADIENT     300
GEOM_OPT_TOL_DISPLACEMENT 1200
GEOM_OPT_TOL_ENERGY       100
SYMMETRY                  False
THRESH                    12
SCF_CONVERGENCE           8
MAX_SUB_FILE_NUM          128
MEM_STATIC                400
MEM_TOTAL                 4000
$end
