$molecule
0  1
O -3.94934 -3.66094 2.70899
C -3.26408 -4.56952 2.26188
C -3.36658 -6.02376 2.66595
C -4.25419 -6.35572 3.87665
C -5.08044 -5.22016 4.4387
O -6.25455 -5.11496 3.7489
C -6.66886 -3.75984 3.54577
C -5.79515 -2.8148 4.36409
O -6.51755 -2.35586 5.51752
C -6.03202 -1.23175 6.10044
C -6.54892 0.03395 5.45898
C -5.54399 0.7557 4.54933
C -4.33067 -0.05163 4.13365
O -3.42527 0.34806 3.41597
O -2.40197 -4.29696 1.24772
O -3.83239 -0.9403 5.03757
O -5.69893 -1.24771 7.2754
C -2.56978 -1.51474 5.01936
C -7.74484 -0.09782 4.47754
C -8.49549 1.2316 4.39471
C -7.49472 2.07547 3.62814
C -6.42698 1.02081 3.31756
O -7.16237 -0.17026 3.19869
H -6.88689 0.68717 6.2961
H -5.1523 1.68645 5.0158
H -8.45071 -0.91394 4.74393
H -9.38369 1.06015 3.7445
H -8.83211 1.65628 5.36445
H -7.98006 2.43197 2.6924
H -7.06876 2.93543 4.18884
H -5.82905 1.31699 2.42762
O -5.01104 -4.97889 5.64044
C -2.20773 -3.04165 0.71043
C -3.99786 -6.90694 1.57688
C -3.5477 -8.35557 1.76006
C -4.33351 -8.74115 2.99643
C -5.1343 -7.4559 3.23082
O -5.35732 -6.96372 1.92998
H -2.31862 -6.343 2.86587
H -3.66787 -6.78877 4.71916
H -1.83367 -2.34475 1.4905
H -3.77226 -6.55918 0.54507
H -3.93766 -8.94011 0.89615
H -2.44771 -8.49544 1.83307
H -5.02378 -9.57173 2.72729
H -3.72358 -9.0274 3.88012
H -6.04152 -7.67715 3.83539
H -3.15937 -2.65511 0.28676
H -1.45541 -3.10644 -0.10215
H -2.48726 -2.2414 5.85309
H -1.78968 -0.73459 5.14279
H -2.40436 -2.05277 4.06252
H -4.73997 -2.95133 4.61296
H -5.75927 -1.97293 3.66439
H -7.74643 -3.61553 3.77537
H -6.53928 -3.57326 2.45545
$end

$opt
CONSTRAINT
tors           1           2           3           4      -9.474
tors           3           4           5           6     +85.263
tors           4           5           6           7    -142.105
tors           5           6           7           8      -9.474
tors           6           7           8           9    -104.211
tors           7           8           9          10    -161.053
tors           8           9          10          11     +85.263
tors           9          10          11          12    -104.211
tors          11          12          13          14    -180.000
ENDCONSTRAINT
$end

$rem
JOBTYPE                   OPT
METHOD                    B3LYP
DFT_D                     d3_op
BASIS                     STO-3G
GEOM_OPT_MAX_CYCLES       100
GEOM_OPT_TOL_GRADIENT     300
GEOM_OPT_TOL_DISPLACEMENT 1200
GEOM_OPT_TOL_ENERGY       100
SYMMETRY                  False
THRESH                    12
SCF_CONVERGENCE           8
MAX_SUB_FILE_NUM          128
MEM_STATIC                400
MEM_TOTAL                 4000
$end
