$molecule
0  1
O -3.94934 -3.66094 2.70899
C -3.26408 -4.56952 2.26188
C -3.36658 -6.02376 2.66595
C -4.41631 -6.88207 1.94122
C -5.12384 -6.23632 0.77054
O -4.8192 -4.90586 0.72075
C -5.74843 -4.14412 -0.05741
C -5.64294 -2.66468 0.29788
O -6.94838 -2.06578 0.29255
C -7.71603 -2.35029 -0.78862
C -6.95331 -3.0612 -1.8811
C -6.09385 -4.24234 -1.40728
C -6.39022 -4.75792 -0.01335
O -5.92322 -4.30795 1.02299
O -2.20286 -4.2323 1.47569
O -7.51743 -5.69025 0.06671
O -8.91599 -2.1208 -0.80629
C -8.12481 -6.20641 1.20264
C -7.89225 -3.63834 -2.95109
C -7.12469 -3.8811 -4.2517
C -6.38628 -5.14041 -3.889
C -6.79597 -5.28883 -2.41351
O -8.15091 -4.91642 -2.45549
H -6.30855 -2.2718 -2.33078
H -5.08029 -4.30459 -2.06726
H -8.7762 -2.99482 -3.15217
H -7.82264 -4.10569 -5.08901
H -6.48131 -3.01554 -4.52084
H -6.8587 -5.98705 -4.43857
H -5.2982 -5.1444 -4.11361
H -6.61763 -6.3495 -2.14059
O -5.21826 -6.92213 -0.25503
C -1.84887 -2.94227 1.13711
C -2.08995 -6.84115 2.33839
C -1.99517 -8.05741 3.25748
C -3.10185 -8.91845 2.69578
C -3.52955 -8.0686 1.49455
O -2.34882 -7.42673 1.0873
H -3.47787 -6.02722 3.77352
H -5.21838 -7.20931 2.63671
H -1.61168 -2.35928 2.05221
H -1.14889 -6.25458 2.41985
H -1.01999 -8.55186 3.04431
H -2.06448 -7.84241 4.34547
H -2.65888 -9.88184 2.35774
H -3.9515 -9.11215 3.38572
H -4.01446 -8.72724 0.7421
H -2.66892 -2.44422 0.58149
H -0.94923 -2.97163 0.48905
H -8.94452 -6.88423 0.88903
H -8.56706 -5.40687 1.8296
H -7.41432 -6.79421 1.81251
H -5.16583 -2.31626 1.26031
H -5.07092 -1.98631 -0.41882
H -7.62218 -3.69599 0.92148
H -4.42975 -3.76897 -0.25967
$end

$opt
CONSTRAINT
tors           1           2           3           4     +85.263
tors           3           4           5           6      -9.474
tors           4           5           6           7    -161.053
tors           5           6           7           8    +161.053
tors           6           7           8           9    -142.105
tors           7           8           9          10     -47.368
tors           8           9          10          11      -9.474
tors           9          10          11          12     +47.368
tors          11          12          13          14     -85.263
ENDCONSTRAINT
$end

$rem
JOBTYPE                   OPT
METHOD                    B3LYP
DFT_D                     d3_op
BASIS                     STO-3G
GEOM_OPT_MAX_CYCLES       100
GEOM_OPT_TOL_GRADIENT     300
GEOM_OPT_TOL_DISPLACEMENT 1200
GEOM_OPT_TOL_ENERGY       100
SYMMETRY                  False
THRESH                    12
SCF_CONVERGENCE           8
MAX_SUB_FILE_NUM          128
MEM_STATIC                400
MEM_TOTAL                 4000
$end
