$molecule
0  1
O -3.94934 -3.66094 2.70899
C -3.26408 -4.56952 2.26188
C -3.36658 -6.02376 2.66595
C -3.18715 -7.07505 1.5585
C -2.74922 -6.56083 0.20502
O -1.87377 -7.44088 -0.36464
C -2.4626 -8.22596 -1.40685
C -1.68167 -8.04724 -2.70466
O -0.86894 -9.2057 -2.95029
C 0.45853 -8.96727 -3.09207
C 1.10247 -9.83386 -4.14802
C 1.41204 -9.11918 -5.47153
C 1.37141 -7.6048 -5.42999
O 1.88977 -6.85912 -6.24842
O -2.16569 -4.2263 1.53488
O 0.31164 -7.03053 -4.79543
O 1.04765 -8.05828 -2.51726
C 0.01983 -5.67557 -4.82698
C 2.49134 -10.36074 -3.7534
C 2.80909 -11.62212 -4.55429
C 3.01352 -11.03474 -5.93641
C 2.88989 -9.53874 -5.62208
O 3.38214 -9.42497 -4.30745
H 0.42024 -10.69585 -4.33374
H 0.77508 -9.45071 -6.3207
H 2.59368 -10.55381 -2.66307
H 3.7864 -12.00541 -4.1824
H 2.05076 -12.43197 -4.491
H 4.04496 -11.28263 -6.27225
H 2.27472 -11.35305 -6.70352
H 3.42577 -8.94257 -6.39322
O -3.42562 -5.78207 -0.45478
C -1.84865 -2.93923 1.15368
C -2.21672 -6.4155 3.61873
C -2.64653 -7.59375 4.48666
C -2.67163 -8.6996 3.4564
C -2.10394 -7.95671 2.23852
O -1.24149 -6.99593 2.78987
H -4.32605 -6.13489 3.22067
H -4.12815 -7.64137 1.38172
H -1.70273 -2.29881 2.04965
H -1.87168 -5.57585 4.26198
H -1.81155 -7.78794 5.198
H -3.58876 -7.45713 5.05968
H -1.98344 -9.50612 3.79448
H -3.67589 -9.12268 3.23713
H -1.63308 -8.70516 1.56702
H -2.65725 -2.51944 0.51795
H -0.90614 -2.9555 0.569
H -0.90114 -5.4687 -4.24828
H -0.15494 -5.34254 -5.87225
H 0.85813 -5.09622 -4.38385
H -2.41297 -8.03104 -3.54167
H -1.16816 -7.06556 -2.70794
H -3.51924 -7.92425 -1.60832
H -2.51575 -9.2984 -1.12057
$end

$opt
CONSTRAINT
tors           1           2           3           4    +142.105
tors           3           4           5           6    +142.105
tors           4           5           6           7    +104.211
tors           5           6           7           8    +123.158
tors           6           7           8           9    +104.211
tors           7           8           9          10    -123.158
tors           8           9          10          11    -142.105
tors           9          10          11          12    +104.211
tors          11          12          13          14    +161.053
ENDCONSTRAINT
$end

$rem
JOBTYPE                   OPT
METHOD                    B3LYP
DFT_D                     d3_op
BASIS                     STO-3G
GEOM_OPT_MAX_CYCLES       100
GEOM_OPT_TOL_GRADIENT     300
GEOM_OPT_TOL_DISPLACEMENT 1200
GEOM_OPT_TOL_ENERGY       100
SYMMETRY                  False
THRESH                    12
SCF_CONVERGENCE           8
MAX_SUB_FILE_NUM          128
MEM_STATIC                400
MEM_TOTAL                 4000
$end
