$molecule
0  1
O -5.281728537 0.5640850372 0.6032278211
C -4.499899581 0.1987846738 -0.3003580579
C -3.4854983631 -0.9999700907 -0.238774266
C -2.0983287506 -0.7488803698 -0.953497512
C -1.80014038 0.783850751 -1.1954134709
O -0.8259236004 0.9807601875 -2.2395579932
C 0.5223102056 1.3826224913 -1.7409623816
C 0.5668258515 1.9785202137 -0.2838793779
O 1.7961271916 2.7153175924 0.0928941372
C 2.9900341249 2.0674171182 0.5588965109
C 3.6785968651 0.7126155615 0.0518011253
C 3.3760925718 -0.6496469902 0.8179228205
C 2.3669162153 -0.6738876308 2.0146090453
O 2.4341174887 -1.4735658016 2.9762929186
O -4.5555690111 0.6681563685 -1.6537988426
O 1.3795822113 0.3429277161 1.8926324694
O 3.6605641654 2.7628715876 1.3626735565
C 0.4204529182 0.3063582355 3.0296353388
C 3.5035893553 0.2441697144 -1.4510823842
C 4.7187116947 -0.6914512384 -1.8343751559
C 4.320199199 -2.0359788184 -1.1158246558
C 2.9828762195 -1.607339163 -0.3967679213
O 2.3685819336 -0.707753954 -1.3975828423
H 4.7444041517 0.9496618048 0.2209728507
H 4.3196681016 -1.0233959598 1.2542005419
H 3.2949504551 1.0561337596 -2.172834781
H 4.7725933544 -0.8194817241 -2.9271496238
H 5.6799619265 -0.2876323719 -1.4787363787
H 4.1207764987 -2.8371354083 -1.8454131041
H 5.0843127012 -2.385727217 -0.403397625
H 2.2904581018 -2.4325381305 -0.1391095134
O -2.319419748 1.7154770495 -0.5404583454
C -5.5174662294 1.7873398847 -1.7615100384
C -3.0326153469 -1.3692107616 1.2329670831
C -2.5923730822 -2.8815561145 1.2369275146
C -1.2615716927 -2.8041344462 0.3979763569
C -1.1097255767 -1.2456193533 0.1869365792
O -1.742630984 -0.6553937033 1.3911764574
H -3.9931531573 -1.8641828488 -0.7075417507
H -1.9821539846 -1.3105447895 -1.8967296381
H -5.1791497744 2.6659330561 -1.1749234876
H -3.7491302982 -1.062122233 2.019930678
H -2.3977564271 -3.2235104849 2.2662229003
H -3.3486307168 -3.5400645584 0.7812829921
H -0.4021156837 -3.2017546117 0.9610270159
H -1.3337910035 -3.3400962901 -0.561994731
H -0.0655908777 -0.8937078507 0.0854661164
H -6.5277544168 1.4943337394 -1.4095273622
H -5.5584281242 2.0535651145 -2.8336849208
H -0.5549098405 -0.0683096923 2.6336257077
H 0.3177504433 1.3394529967 3.4105227006
H 0.8129953999 -0.3649648485 3.8175242242
H -0.2416115625 2.7296934134 -0.1653951487
H 0.4211840394 1.1650371026 0.4568691335
H 0.9186625102 2.1217244599 -2.4685679595
H 1.1498026268 0.4609086262 -1.743618751
$end

$rem
JOBTYPE                   OPT
METHOD                    B3LYP
DFT_D                     d3_op
BASIS                     STO-3G
GEOM_OPT_MAX_CYCLES       100
GEOM_OPT_TOL_GRADIENT     300
GEOM_OPT_TOL_DISPLACEMENT 1200
GEOM_OPT_TOL_ENERGY       100
SYMMETRY                  False
THRESH                    12
SCF_CONVERGENCE           8
MAX_SUB_FILE_NUM          128
MEM_STATIC                400
MEM_TOTAL                 4000
$end
