$molecule
0  1
O -6.6306857418 1.0932763683 0.4866547
C -5.6840963116 0.8654053794 -0.2944091732
C -5.0991296177 -0.5275817863 -0.7224499641
C -3.5761077595 -0.6901096754 -0.2969506399
C -2.9358227067 0.6121835409 0.3072682133
O -2.0097582961 1.1758529205 -0.6460665159
C -0.770427913 1.6339016569 0.0259373461
C 0.4388225893 0.8807495852 -0.6327003198
O 1.5862595402 1.0033735164 0.2999870095
C 2.7898951219 0.5556164717 -0.3460569261
C 3.972765481 0.7501571815 0.6689250095
C 5.1190584859 -0.3318746539 0.5784867706
C 4.7713861593 -1.7931236848 0.1217516304
O 5.5753341075 -2.7523091826 0.1282872603
O -4.8821831747 1.8804163257 -0.9123265707
O 3.3699232164 -1.9483980233 -0.1136634476
O 2.8496827376 0.2249376761 -1.5483838326
C 3.0634834674 -3.354688898 -0.4597919413
C 4.7819868189 2.0200999923 0.1428509675
C 5.964436621 2.3744651457 1.1313294717
C 7.0523121072 1.315782963 0.7116823018
C 6.2166667992 0.4334538947 -0.2936711852
O 5.4561440122 1.4538399083 -1.0502392263
H 3.5748114133 0.8682097684 1.6913248691
H 5.5345623136 -0.4669383593 1.5953371107
H 4.1415010766 2.8766474365 -0.1445620262
H 6.312173613 3.4061273769 0.9653023933
H 5.6588631799 2.2713036273 2.1851158176
H 7.8961288576 1.7946008281 0.1887704583
H 7.4433900579 0.7375113198 1.5637652035
H 6.8036227058 -0.2106201194 -0.9767307996
O -3.0761473493 1.0409026037 1.472996571
C -5.2950801045 3.2198207637 -0.4349080738
C -5.7736648166 -1.6823992783 0.1220616532
C -5.3696629762 -3.0763479919 -0.4997261003
C -3.8824005804 -3.2149594646 -0.0012643393
C -3.697676128 -1.8543874893 0.7805518684
O -5.0221273556 -1.6313719636 1.3991247928
H -5.2261161581 -0.6617387371 -1.8122167362
H -2.9601774522 -0.9962805057 -1.1601435823
H -5.1119230168 3.3311920955 0.6536285546
H -6.8546811481 -1.5308231387 0.3077792657
H -6.0077568851 -3.8792071126 -0.0980320803
H -5.45012252 -3.0770564768 -1.5985670876
H -3.7657051486 -4.0685471631 0.6855008014
H -3.161593998 -3.3238560859 -0.8271807907
H -2.9055486257 -1.8534085839 1.5544681647
H -6.3684528184 3.4125934861 -0.6358157702
H -4.674842697 3.9463121369 -0.9911422027
H 1.966481326 -3.4025182794 -0.5880496433
H 3.3770092389 -4.051149397 0.3447667314
H 3.560268604 -3.6588302807 -1.4034034543
H 0.173265437 -0.1897739846 -0.7803782254
H 0.6837505902 1.3086465414 -1.6280902458
H -0.8106160792 1.4243920749 1.1162836368
H -0.6552511744 2.7309959751 -0.1095366178
$end

$rem
JOBTYPE                   OPT
METHOD                    B3LYP
DFT_D                     d3_op
BASIS                     STO-3G
GEOM_OPT_MAX_CYCLES       100
GEOM_OPT_TOL_GRADIENT     300
GEOM_OPT_TOL_DISPLACEMENT 1200
GEOM_OPT_TOL_ENERGY       100
SYMMETRY                  False
THRESH                    12
SCF_CONVERGENCE           8
MAX_SUB_FILE_NUM          128
MEM_STATIC                400
MEM_TOTAL                 4000
$end
