$molecule
0  1
O -3.94934 -3.66094 2.70899
C -3.26408 -4.56952 2.26188
C -3.36658 -6.02376 2.66595
C -2.21504 -6.603 3.50398
C -1.17665 -5.61865 3.99481
O -0.18913 -6.28195 4.66581
C -0.16015 -5.98252 6.06537
C -1.32602 -5.0701 6.43193
O -0.95622 -4.22033 7.52921
C -1.97846 -3.8142 8.32245
C -1.59219 -3.72325 9.77956
C -0.47236 -2.71962 10.09096
C -0.15832 -1.7194 8.99659
O 0.95168 -1.27745 8.73749
O -2.34226 -4.28387 1.30364
O -1.22522 -1.13496 8.38401
O -3.11263 -3.61216 7.90661
C -1.13375 -0.16598 7.40701
C -2.71176 -3.21729 10.71088
C -2.43701 -3.67586 12.14295
C -1.25892 -2.79347 12.50086
C -1.15986 -1.93988 11.2321
O -2.49289 -1.83273 10.79228
H -1.30599 -4.75537 10.08374
H 0.48218 -3.17903 10.43058
H -3.72901 -3.53787 10.39775
H -3.31064 -3.36876 12.76165
H -2.26719 -4.76729 12.26494
H -1.54619 -2.16121 13.37036
H -0.30946 -3.32956 12.71669
H -0.64387 -0.97881 11.45276
O -1.00649 -4.47683 3.59004
C -2.11498 -3.02185 0.79562
C -4.55227 -6.29057 3.62364
C -4.99169 -7.74787 3.51017
C -3.82641 -8.4416 4.17807
C -3.01816 -7.22832 4.65699
O -3.99138 -6.24743 4.91192
H -3.5512 -6.59256 1.72672
H -1.65784 -7.38218 2.93683
H -1.79113 -2.33518 1.60681
H -5.42605 -5.62543 3.44854
H -5.89205 -7.86521 4.15548
H -5.23017 -8.10064 2.48378
H -4.21546 -9.0259 5.04156
H -3.22246 -9.09941 3.51613
H -2.38012 -7.54503 5.50603
H -3.03804 -2.62976 0.31759
H -1.31227 -3.07635 0.03201
H -2.15533 0.12428 7.08686
H -0.58226 -0.56224 6.52768
H -0.61443 0.73193 7.8047
H -1.66606 -4.26977 5.74983
H -2.21585 -5.68592 6.67333
H 0.79249 -5.43579 6.23394
H -0.15358 -6.8973 6.69486
$end

$opt
CONSTRAINT
tors           1           2           3           4    -108.981
tors           3           4           5           6    -177.138
tors           4           5           6           7    -112.694
tors           5           6           7           8      +4.204
tors           6           7           8           9    -149.247
tors           7           8           9          10    -151.997
tors           8           9          10          11    +143.813
tors           9          10          11          12     +61.418
tors          11          12          13          14    -145.267
ENDCONSTRAINT
$end

$rem
JOBTYPE                   OPT
METHOD                    B3LYP
DFT_D                     d3_op
BASIS                     STO-3G
GEOM_OPT_MAX_CYCLES       100
GEOM_OPT_TOL_GRADIENT     300
GEOM_OPT_TOL_DISPLACEMENT 1200
GEOM_OPT_TOL_ENERGY       100
SYMMETRY                  False
THRESH                    12
SCF_CONVERGENCE           8
MAX_SUB_FILE_NUM          128
MEM_STATIC                400
MEM_TOTAL                 4000
$end
