$molecule
0  1
O -3.94934 -3.66094 2.70899
C -3.26408 -4.56952 2.26188
C -3.36658 -6.02376 2.66595
C -2.21168 -6.60489 3.49802
C -1.16949 -5.62216 3.98399
O -0.28824 -5.34504 2.978
C 0.86868 -4.62959 3.424
C 1.38107 -5.22221 4.73259
O 2.48841 -4.44816 5.21995
C 3.05871 -4.90209 6.36356
C 4.24723 -4.07688 6.79613
C 4.02127 -2.55802 6.77936
C 2.57784 -2.10568 6.6867
O 2.14718 -1.26391 5.91177
O -2.30066 -4.27457 1.35069
O 1.7107 -2.65076 7.58379
O 2.58075 -5.79573 7.05245
C 0.36201 -2.36827 7.63598
C 4.71302 -4.29106 8.24899
C 6.17867 -3.87825 8.38432
C 6.06166 -2.37109 8.26979
C 4.53892 -2.21719 8.19104
O 4.05269 -3.28346 8.97352
H 5.06749 -4.35284 6.09583
H 4.59365 -2.03341 5.98227
H 4.57377 -5.33235 8.61177
H 6.49782 -4.13079 9.42098
H 6.87319 -4.35673 7.6607
H 6.44834 -1.91728 9.20934
H 6.57028 -1.91898 7.39093
H 4.23301 -1.19728 8.51389
O -1.45865 -4.78409 4.83352
C -2.02735 -3.00345 0.89149
C -4.54378 -6.28063 3.63492
C -4.95516 -7.75263 3.58547
C -3.79815 -8.3933 4.32095
C -2.99438 -7.14889 4.70794
O -3.97653 -6.16421 4.91539
H -3.55255 -6.59514 1.72913
H -1.67349 -7.42434 2.97033
H -1.71956 -2.35058 1.73623
H -5.42924 -5.63947 3.43109
H -5.87277 -7.86523 4.20639
H -5.15047 -8.14954 2.56607
H -4.19375 -8.88934 5.23528
H -3.19784 -9.11622 3.72732
H -2.33204 -7.36986 5.57436
H -2.92251 -2.57593 0.39131
H -1.19658 -3.05289 0.15815
H -0.0999 -2.95249 8.45792
H -0.12421 -2.65277 6.67812
H 0.20424 -1.2863 7.83226
H 0.64342 -5.23782 5.55662
H 1.70508 -6.26921 4.53619
H 0.58795 -3.56864 3.60777
H 1.65075 -4.65052 2.6362
$end

$opt
CONSTRAINT
tors           1           2           3           4    -109.279
tors           3           4           5           6     -80.282
tors           4           5           6           7    -168.714
tors           5           6           7           8     +43.154
tors           6           7           8           9    -176.305
tors           7           8           9          10    -178.120
tors           8           9          10          11    +177.869
tors           9          10          11          12     +47.301
tors          11          12          13          14    -131.616
ENDCONSTRAINT
$end

$rem
JOBTYPE                   OPT
METHOD                    B3LYP
DFT_D                     d3_op
BASIS                     STO-3G
GEOM_OPT_MAX_CYCLES       100
GEOM_OPT_TOL_GRADIENT     300
GEOM_OPT_TOL_DISPLACEMENT 1200
GEOM_OPT_TOL_ENERGY       100
SYMMETRY                  False
THRESH                    12
SCF_CONVERGENCE           8
MAX_SUB_FILE_NUM          128
MEM_STATIC                400
MEM_TOTAL                 4000
$end
