$molecule
0  1
O -3.94934 -3.66094 2.70899
C -3.26408 -4.56952 2.26188
C -3.36658 -6.02376 2.66595
C -2.45811 -6.50055 3.81103
C -1.67766 -5.43111 4.54267
O -0.48263 -5.21851 3.91647
C 0.32767 -4.23491 4.56855
C 0.77571 -4.74455 5.93444
O 1.51656 -3.72231 6.61932
C 1.97165 -4.05857 7.85179
C 2.84563 -2.99193 8.46749
C 2.2678 -1.57018 8.41243
C 0.79055 -1.46935 8.0895
O 0.30869 -0.82624 7.1682
O -2.20592 -4.25874 1.46879
O -0.05566 -2.17385 8.8899
O 1.61231 -5.06124 8.4572
C -1.42233 -2.23533 8.71696
C 3.1192 -3.13429 9.97789
C 4.41041 -2.39835 10.33589
C 3.96789 -0.95541 10.18578
C 2.47905 -1.15297 9.87956
O 2.14266 -2.32497 10.58652
H 3.8081 -3.04164 7.90989
H 2.81003 -0.91772 7.69227
H 3.17127 -4.18944 10.3231
H 4.61139 -2.59656 11.41325
H 5.30292 -2.6854 9.7393
H 4.10077 -0.44436 11.16517
H 4.48011 -0.38149 9.3834
H 1.89935 -0.24049 10.14236
O -2.20582 -4.61963 5.29692
C -1.88354 -2.97906 1.0688
C -4.74793 -6.3387 3.28941
C -5.04758 -7.83397 3.17979
C -4.09308 -8.38793 4.21485
C -3.5075 -7.087 4.7723
O -4.56502 -6.16715 4.67203
H -3.2801 -6.62674 1.73433
H -1.73619 -7.2815 3.48094
H -1.66834 -2.3444 1.95509
H -5.57764 -5.75662 2.83088
H -6.08927 -7.98965 3.54183
H -4.94661 -8.2635 2.15993
H -4.6871 -8.9101 4.9977
H -3.30472 -9.06544 3.82123
H -3.09809 -7.25276 5.7937
H -2.71946 -2.53889 0.48412
H -0.97878 -3.01548 0.42811
H -1.86003 -2.87818 9.5078
H -1.66161 -2.67572 7.72512
H -1.86456 -1.21923 8.79502
H -0.10538 -5.00991 6.55697
H 1.40162 -5.65445 5.795
H -0.2212 -3.26994 4.66049
H 1.23045 -4.04462 3.95056
$end

$opt
CONSTRAINT
tors           1           2           3           4     -91.959
tors           3           4           5           6     -88.353
tors           4           5           6           7    -178.809
tors           5           6           7           8     +66.717
tors           6           7           8           9    -176.357
tors           7           8           9          10    -179.965
tors           8           9          10          11    +174.814
tors           9          10          11          12     +48.570
tors          11          12          13          14    -123.956
ENDCONSTRAINT
$end

$rem
JOBTYPE                   OPT
METHOD                    B3LYP
DFT_D                     d3_op
BASIS                     STO-3G
GEOM_OPT_MAX_CYCLES       100
GEOM_OPT_TOL_GRADIENT     300
GEOM_OPT_TOL_DISPLACEMENT 1200
GEOM_OPT_TOL_ENERGY       100
SYMMETRY                  False
THRESH                    12
SCF_CONVERGENCE           8
MAX_SUB_FILE_NUM          128
MEM_STATIC                400
MEM_TOTAL                 4000
$end
