$molecule
0  1
O -3.9148937887 0.549426898 0.3277862673
C -3.2705411949 -0.3049938782 -0.3180592261
C -1.9118214384 -0.971846029 0.0737051922
C -0.9941607638 -0.0562090942 0.9857928426
C -1.5890369071 1.3699753079 1.3353204016
O -1.8136307375 2.4138742108 0.3664114343
C -1.0253530634 2.5679480388 -0.8747855075
C -1.1110674598 1.4727759931 -2.0171294212
O 0.1291023134 0.7903554678 -2.4888500751
C 1.3853865036 1.3056292459 -2.0283923305
C 2.3927343391 0.126737363 -1.7471276897
C 3.3564273702 0.262614316 -0.4954523039
C 2.9650681484 1.1825488823 0.7201762226
O 3.6822388638 1.3306302093 1.7346873676
O -3.6904128009 -0.8464864474 -1.5795041682
O 1.6387773475 1.7102816301 0.6250854135
O 1.6655485273 2.5230133227 -1.9461105203
C 1.3497781985 2.5135039238 1.8415349401
C 1.7495234179 -1.3050085363 -1.5092400648
C 2.7662585459 -2.3774592034 -2.0548007718
C 3.929948725 -2.2316423585 -1.0033886523
C 3.2905783808 -1.2338202343 0.041914421
O 1.8382984389 -1.5021832014 -0.0446963639
H 3.0348189348 0.0742640125 -2.6477343208
H 4.3789292119 0.5421521822 -0.8073064744
H 0.7026787496 -1.3902878259 -1.8588875704
H 2.3172308872 -3.3831851168 -2.0198210295
H 3.0892616756 -2.1666093271 -3.0865432366
H 4.1686438523 -3.1932424108 -0.5223794877
H 4.8512245813 -1.8214843459 -1.4473879846
H 3.646307512 -1.3505713728 1.0842434859
O -1.951447778 1.6635004942 2.4977703863
C -4.9993239459 -0.2701981792 -1.9665711941
C -2.2143125599 -2.1834501603 1.0734321683
C -0.9226542099 -3.0774723985 1.1938683097
C -0.0031790414 -2.1596979084 2.0791466362
C -0.9480163884 -0.921790111 2.3183260342
O -2.3058859918 -1.513664076 2.3862435909
H -1.3925978296 -1.3233067574 -0.8340079209
H 0.0161704082 0.0651464978 0.5453576872
H -4.9541467747 0.8361648352 -2.030807693
H -3.149793922 -2.7318185484 0.8468986422
H -1.1625854378 -4.0299347348 1.6930234353
H -0.4741038176 -3.2937078512 0.2110008742
H 0.2686112243 -2.6404649378 3.0312672572
H 0.899656615 -1.8727851997 1.5130481931
H -0.7506575142 -0.3208255841 3.2268296379
H -5.7957638266 -0.5475937884 -1.2462187289
H -5.2371410155 -0.6910939375 -2.960743426
H 0.4002461075 3.0431085347 1.6478242668
H 2.1566784233 3.2457933523 2.0398029258
H 1.2329580601 1.8620219163 2.73113454
H -1.799417164 0.6567845951 -1.7320356839
H -1.5575346778 1.960466043 -2.9120328946
H 0.0491943356 2.7232908907 -0.6330860236
H -1.4138740465 3.5184408859 -1.2909511904
$end

$rem
JOBTYPE                   OPT
METHOD                    B3LYP
DFT_D                     d3_op
BASIS                     STO-3G
GEOM_OPT_MAX_CYCLES       100
GEOM_OPT_TOL_GRADIENT     300
GEOM_OPT_TOL_DISPLACEMENT 1200
GEOM_OPT_TOL_ENERGY       100
SYMMETRY                  False
THRESH                    12
SCF_CONVERGENCE           8
MAX_SUB_FILE_NUM          128
MEM_STATIC                400
MEM_TOTAL                 4000
$end
