$molecule
0  1
O -3.94934 -3.66094 2.70899
C -3.26408 -4.56952 2.26188
C -3.36658 -6.02376 2.66595
C -2.08915 -6.87319 2.56349
C -0.811 -6.1325 2.23825
O -0.17345 -6.74276 1.19588
C 1.18982 -6.33088 1.05071
C 2.092 -7.54915 0.88326
O 2.59439 -7.96566 2.16272
C 2.11341 -9.14781 2.62132
C 2.68737 -9.53572 3.96324
C 2.24624 -10.91193 4.48259
C 1.60731 -11.83026 3.46027
O 2.15337 -12.78425 2.92522
O -2.55432 -4.31868 1.12875
O 0.26645 -11.67177 3.28283
O 1.25181 -9.76066 2.00976
C -0.51063 -12.46054 2.46028
C 4.22027 -9.70639 3.94533
C 4.7698 -9.50544 5.35591
C 4.25812 -10.75771 6.03635
C 3.63773 -11.48518 4.83664
O 4.42337 -11.08059 3.743
H 2.42266 -8.71553 4.6685
H 1.58863 -10.87886 5.37909
H 4.73737 -9.02715 3.23312
H 5.87937 -9.56871 5.28142
H 4.49149 -8.54985 5.85018
H 5.1309 -11.31998 6.43646
H 3.50864 -10.59063 6.84006
H 3.60432 -12.58 5.03246
O -0.38118 -5.18394 2.88632
C -2.41371 -3.07382 0.55163
C -3.6646 -6.17659 4.17393
C -4.27941 -7.54914 4.45206
C -3.06676 -8.43998 4.28797
C -1.9882 -7.39008 4.00919
O -2.39579 -6.28015 4.77039
H -4.21142 -6.45033 2.08066
H -2.21397 -7.71941 1.84881
H -1.92259 -2.37697 1.26411
H -4.32906 -5.38106 4.5761
H -4.58952 -7.57077 5.52139
H -5.14989 -7.80558 3.81067
H -2.86197 -8.93897 5.2615
H -3.13908 -9.20145 3.48145
H -0.98037 -7.80128 4.24275
H -3.4066 -2.67265 0.25618
H -1.78 -3.16314 -0.35441
H -1.56093 -12.10608 2.50377
H -0.47505 -13.51823 2.79817
H -0.15171 -12.38845 1.41132
H 1.61002 -8.32374 0.2453
H 2.99235 -7.22706 0.31707
H 1.61182 -5.62833 1.80443
H 1.21789 -5.79539 0.07701
$end

$opt
CONSTRAINT
tors           1           2           3           4    -151.270
tors           3           4           5           6    -129.376
tors           4           5           6           7    -164.626
tors           5           6           7           8    +132.336
tors           6           7           8           9     -92.721
tors           7           8           9          10    +110.904
tors           8           9          10          11    +179.513
tors           9          10          11          12    -176.073
tors          11          12          13          14    +103.422
ENDCONSTRAINT
$end

$rem
JOBTYPE                   OPT
METHOD                    B3LYP
DFT_D                     d3_op
BASIS                     STO-3G
GEOM_OPT_MAX_CYCLES       100
GEOM_OPT_TOL_GRADIENT     300
GEOM_OPT_TOL_DISPLACEMENT 1200
GEOM_OPT_TOL_ENERGY       100
SYMMETRY                  False
THRESH                    12
SCF_CONVERGENCE           8
MAX_SUB_FILE_NUM          128
MEM_STATIC                400
MEM_TOTAL                 4000
$end
