$molecule
0  1
O -6.0573249931 0.1133920961 0.314576289
C -4.916573636 0.1571752719 -0.1923741529
C -3.9383072807 -1.0473824781 -0.421842655
C -2.3950078576 -0.6876096252 -0.4253965351
C -2.075470164 0.7867650177 0.0055264485
O -1.4425789337 1.4447539461 -1.1043822895
C -1.0212120384 2.810096836 -0.7110338795
C 0.5203836265 2.9206908461 -0.9468091347
O 1.204160752 2.1942393918 0.1535174843
C 1.9811575604 1.1135929237 -0.3651022396
C 2.6853119587 0.3956080652 0.8330805189
C 3.6232451411 -0.7988634797 0.3855764266
C 3.6410224246 -1.0670700753 -1.1648852371
O 4.4920079098 -0.6833899644 -1.9945251774
O -4.3417834903 1.3349988679 -0.7710991256
O 2.542000189 -1.9417528345 -1.466999808
O 2.0634740277 0.8244359503 -1.5809866491
C 2.451729572 -2.1419208908 -2.9298788575
C 3.7346976236 1.3554888458 1.5442594166
C 4.136469607 0.7157988155 2.93091102
C 5.0862313609 -0.449207188 2.4648401053
C 5.0321474327 -0.2764055067 0.896199062
O 4.9476920873 1.1923483792 0.713106265
H 1.9058217646 0.0605802318 1.5419445006
H 3.3261968904 -1.7338460068 0.8924461022
H 3.4196612504 2.4163681806 1.5827214989
H 4.6713842336 1.4509092617 3.5528729608
H 3.258730741 0.3530413858 3.4895421571
H 6.1141655438 -0.3032558417 2.8329516421
H 4.7326170996 -1.4420602244 2.785912355
H 5.8965625548 -0.6830334119 0.3366627424
O -2.2220029954 1.3024246514 1.1357379571
C -5.2123767498 2.5077188477 -0.5311984974
C -4.0106455179 -2.1130793963 0.7526892652
C -3.4558780015 -3.4841078843 0.2013600335
C -1.9166761199 -3.1669278256 0.1067558462
C -1.8683920175 -1.6968391588 0.6846202503
O -2.9539174812 -1.6721829533 1.6916162501
H -4.220589879 -1.513080812 -1.3851656743
H -1.9373628118 -0.8685673922 -1.4133114567
H -5.2809866436 2.7428293213 0.5506137143
H -4.994691263 -2.1569001616 1.2591914019
H -3.6564962496 -4.2950773168 0.9194526852
H -3.8986009247 -3.7539883454 -0.7704887381
H -1.3219292578 -3.8485852593 0.7352533455
H -1.5354464778 -3.2163664153 -0.9258885049
H -0.9057758269 -1.4037629379 1.1464244985
H -6.2358095085 2.3416961188 -0.9245655648
H -4.7392061104 3.3528511821 -1.064019972
H 1.6300442126 -2.8635232576 -3.0928770871
H 3.3941137541 -2.5502106351 -3.3488274056
H 2.2181028643 -1.1892117759 -3.4483547346
H 0.8098354173 2.4616104723 -1.9169816262
H 0.8428375906 3.983086644 -0.9137155031
H -1.2793695355 2.9659017543 0.3600311827
H -1.5594174553 3.5480634565 -1.3437053559
$end

$rem
JOBTYPE                   OPT
METHOD                    B3LYP
DFT_D                     d3_op
BASIS                     STO-3G
GEOM_OPT_MAX_CYCLES       100
GEOM_OPT_TOL_GRADIENT     300
GEOM_OPT_TOL_DISPLACEMENT 1200
GEOM_OPT_TOL_ENERGY       100
SYMMETRY                  False
THRESH                    12
SCF_CONVERGENCE           8
MAX_SUB_FILE_NUM          128
MEM_STATIC                400
MEM_TOTAL                 4000
$end
