$molecule
0  1
O -5.8340417746 0.3364630188 0.165119028
C -4.6599210436 0.312247802 -0.2612193204
C -3.7318796126 -0.947825813 -0.3806903662
C -2.1757515156 -0.687773109 -0.1968876497
C -1.8283565237 0.7826957104 0.2198291831
O -1.1806487785 1.4483568425 -0.8811982487
C -0.8227375437 2.824299505 -0.4674192482
C 0.6571258427 3.1552510493 -0.86504863
O 1.6087326949 2.5535696963 0.1026827305
C 1.9096837154 1.2073195915 -0.2722611888
C 2.9128481955 0.6045238353 0.7663536393
C 3.4371056576 -0.8283795091 0.3455100481
C 2.8442641171 -1.3768915842 -1.0058560621
O 3.4383059103 -1.4500221439 -2.1028153206
O -3.9803048802 1.4529993678 -0.7959690699
O 1.5723656532 -1.9952836285 -0.7390617851
O 1.4936310415 0.657425981 -1.317561293
C 0.9984968018 -2.4735305556 -2.0161776599
C 4.2725557675 1.427367234 0.8038731515
C 5.0817032924 0.9930038831 2.0886909546
C 5.6107961924 -0.4227168995 1.6504931034
C 4.9910753633 -0.5450155656 0.2032125694
O 5.0447500113 0.8432116883 -0.3146776321
H 2.4269920895 0.5892846417 1.7591112924
H 3.2228695731 -1.5676471373 1.1380081698
H 4.1418284748 2.5185522059 0.6677723983
H 5.9094306567 1.6950034278 2.2774513403
H 4.4428311978 0.9513213463 2.985307394
H 6.7111068696 -0.4455827731 1.6023700284
H 5.2688458909 -1.2299579585 2.3176151528
H 5.5133810931 -1.2321769372 -0.4900674029
O -1.9895111478 1.2991027826 1.348409656
C -4.8192389922 2.6647699622 -0.657044438
C -4.0200544217 -1.9727809838 0.7968017855
C -3.48771518 -3.3917344793 0.3642058448
C -1.9339813421 -3.1713108388 0.478252663
C -1.865426724 -1.6827815154 1.0028967953
O -3.0708367042 -1.5584363049 1.8559718337
H -3.9289449069 -1.4111130363 -1.3660267709
H -1.6125661446 -0.9366995474 -1.113087928
H -5.0046853706 2.9075154556 0.4091940982
H -5.0628567633 -1.9388104233 1.1690901328
H -3.8394611222 -4.1649470613 1.0658492462
H -3.8059006689 -3.6665469278 -0.6541668929
H -1.4773622652 -3.856651133 1.2095162595
H -1.4202113328 -3.2949901844 -0.4870861032
H -0.9540302221 -1.4301483345 1.5783769044
H -5.795595876 2.5441023939 -1.1689797653
H -4.2491107819 3.4850715564 -1.1302465442
H 0.1054228357 -3.069104744 -1.7554661252
H 1.7164064503 -3.1060338291 -2.5767139229
H 0.7011582245 -1.6210529401 -2.6611649163
H 0.8638881779 2.7910018181 -1.8939809018
H 0.8182431051 4.2508497717 -0.8086406449
H -0.9745498147 2.9101656946 0.6317008809
H -1.502669448 3.5377057057 -0.9827390473
$end

$rem
JOBTYPE                   OPT
METHOD                    B3LYP
DFT_D                     d3_op
BASIS                     STO-3G
GEOM_OPT_MAX_CYCLES       100
GEOM_OPT_TOL_GRADIENT     300
GEOM_OPT_TOL_DISPLACEMENT 1200
GEOM_OPT_TOL_ENERGY       100
SYMMETRY                  False
THRESH                    12
SCF_CONVERGENCE           8
MAX_SUB_FILE_NUM          128
MEM_STATIC                400
MEM_TOTAL                 4000
$end
