$molecule
0  1
O -3.94934 -3.66094 2.70899
C -3.26408 -4.56952 2.26188
C -3.36658 -6.02376 2.66595
C -2.76261 -7.06348 1.7078
C -1.9673 -6.5228 0.54022
O -0.8359 -5.90736 0.99475
C -0.8142 -5.7481 2.41722
C -1.62816 -6.85319 3.08233
O -0.80727 -7.57038 4.01756
C -1.02762 -7.28541 5.325
C -1.09173 -5.80207 5.60117
C -2.38992 -5.32315 6.26721
C -3.2594 -6.40572 6.87446
O -3.36128 -6.64622 8.06875
O -2.63671 -4.1946 1.11018
O -4.46323 -6.48022 6.23291
O -0.87636 -8.13551 6.19236
C -5.60799 -7.12868 6.67406
C -0.0618 -5.57491 6.80096
C 0.4389 -4.12331 6.95601
C -0.86875 -3.44723 7.29013
C -1.73682 -4.68962 7.5583
O -0.82944 -5.68029 7.95592
H -0.64788 -4.87218 5.12741
H -3.07499 -4.4527 6.1142
H 0.82782 -6.24428 6.76576
H 1.10379 -4.11551 7.85088
H 0.98892 -3.67488 6.10031
H -0.70902 -2.81835 8.19346
H -1.31696 -2.84511 6.47013
H -2.49146 -4.41853 8.33449
O -2.19912 -6.72534 -0.64104
C -2.56147 -2.91275 0.59849
C -2.44705 -5.24775 4.00134
C -3.39409 -7.53732 4.16589
C -2.17264 -9.05071 2.85982
C -0.2457 -8.0127 2.06978
O 0.3207 -6.12187 3.91294
H -4.48931 -6.07611 2.66926
H -3.55658 -7.67889 1.21917
H -2.05077 -2.24356 1.32335
H -2.5568 -4.14752 4.30953
H -3.28025 -8.05116 5.13253
H -4.49248 -7.69639 4.028
H -1.90066 -9.91885 3.49693
H -2.76502 -9.50564 2.03493
H 0.38015 -8.36444 1.22286
H -3.57893 -2.5256 0.3777
H -1.97604 -2.93267 -0.34338
H -5.91753 -7.88369 5.9235
H -6.42497 -6.38688 6.78626
H -5.46447 -7.65227 7.64279
H -1.38624 -7.36493 3.47975
H -1.14448 -6.23624 2.82211
H -0.76532 -4.50681 2.6063
H 0.35795 -5.55546 2.02046
$end

$opt
CONSTRAINT
tors           1           2           3           4    +161.053
tors           3           4           5           6     +66.316
tors           4           5           6           7      -9.474
tors           5           6           7           8     +28.421
tors           6           7           8           9    +123.158
tors           7           8           9          10    +104.211
tors           8           9          10          11     -47.368
tors           9          10          11          12    +123.158
tors          11          12          13          14    +104.211
ENDCONSTRAINT
$end

$rem
JOBTYPE                   OPT
METHOD                    B3LYP
DFT_D                     d3_op
BASIS                     STO-3G
GEOM_OPT_MAX_CYCLES       100
GEOM_OPT_TOL_GRADIENT     300
GEOM_OPT_TOL_DISPLACEMENT 1200
GEOM_OPT_TOL_ENERGY       100
SYMMETRY                  False
THRESH                    12
SCF_CONVERGENCE           8
MAX_SUB_FILE_NUM          128
MEM_STATIC                400
MEM_TOTAL                 4000
$end
