$molecule
0  1
O -3.94934 -3.66094 2.70899
C -3.26408 -4.56952 2.26188
C -3.36658 -6.02376 2.66595
C -4.40587 -6.88575 1.93062
C -5.10267 -6.243 0.75188
O -5.8867 -5.21095 1.18267
C -5.75313 -4.03072 0.38362
C -7.04292 -3.21789 0.42692
O -7.18759 -2.46444 -0.78727
C -8.46407 -2.25071 -1.19232
C -9.31783 -1.60158 -0.12913
C -8.55956 -0.67788 0.83528
C -7.17058 -0.26055 0.39566
O -6.13461 -0.85135 0.66455
O -2.22789 -4.23767 1.4426
O -7.06328 0.89065 -0.3255
O -8.71285 -2.12664 -2.38137
C -5.87639 1.41072 -0.79804
C -10.41504 -0.65562 -0.65965
C -11.53568 -0.53981 0.37245
C -10.84461 0.27163 1.44695
C -9.50276 0.54985 0.75872
O -9.82892 0.61787 -0.60836
H -9.80852 -2.4413 0.41217
H -8.51106 -1.01815 1.89274
H -10.83712 -0.96392 -1.64057
H -12.33787 0.08407 -0.08341
H -11.9713 -1.50392 0.71253
H -11.41331 1.21718 1.59112
H -10.71011 -0.24449 2.42206
H -9.03832 1.46256 1.19409
O -4.94279 -6.55144 -0.4233
C -1.89658 -2.95135 1.06869
C -2.085 -6.83049 2.33352
C -1.99608 -8.07314 3.21962
C -3.0795 -8.93123 2.60816
C -3.50932 -8.03962 1.43977
O -2.32954 -7.3771 1.06256
H -3.47863 -6.03405 3.77317
H -5.20567 -7.2618 2.60676
H -1.65008 -2.34453 1.96592
H -1.14857 -6.24053 2.44201
H -1.01136 -8.55368 3.01975
H -2.09623 -7.88364 4.30997
H -2.61361 -9.86713 2.22656
H -3.92884 -9.17762 3.2815
H -3.9974 -8.65797 0.65439
H -2.73296 -2.47764 0.51462
H -1.00781 -2.98436 0.4059
H -6.08528 2.34978 -1.35022
H -5.39172 0.68872 -1.4896
H -5.19362 1.63729 0.04853
H -7.83846 -4.00186 0.40892
H -7.18273 -2.72795 1.40618
H -5.67425 -4.32693 -0.68851
H -4.86912 -3.40966 0.58301
$end

$opt
CONSTRAINT
tors           1           2           3           4     +85.906
tors           3           4           5           6     -66.334
tors           4           5           6           7    +134.742
tors           5           6           7           8    +151.932
tors           6           7           8           9    -151.764
tors           7           8           9          10    +148.663
tors           8           9          10          11     +54.721
tors           9          10          11          12     +30.207
tors          11          12          13          14     -91.021
ENDCONSTRAINT
$end

$rem
JOBTYPE                   OPT
METHOD                    B3LYP
DFT_D                     d3_op
BASIS                     STO-3G
GEOM_OPT_MAX_CYCLES       100
GEOM_OPT_TOL_GRADIENT     300
GEOM_OPT_TOL_DISPLACEMENT 1200
GEOM_OPT_TOL_ENERGY       100
SYMMETRY                  False
THRESH                    12
SCF_CONVERGENCE           8
MAX_SUB_FILE_NUM          128
MEM_STATIC                400
MEM_TOTAL                 4000
$end
