$molecule
0  1
O -2.2216209153 0.0932599597 1.7511958575
C -2.7182416741 1.0079543179 1.0571109556
C -4.0603931387 0.9576160066 0.2357156052
C -3.8963677478 0.1094047181 -1.1098435208
C -2.3962340421 -0.276554025 -1.3087828961
O -2.1385031881 -1.5777413339 -0.7665821691
C -0.7264818724 -1.9325178305 -1.0587420039
C 0.0395966575 -1.7676669997 0.2949448111
O 1.4755375151 -2.0662932844 0.0849417703
C 2.2417942141 -1.0207714367 0.7039903358
C 3.7615245028 -1.2664291432 0.4429988217
C 4.2626796851 -0.2727161228 -0.702618225
C 3.0520563052 0.3130670798 -1.5184436238
O 2.4772113555 -0.2535558604 -2.4756940133
O -2.0791984948 2.266566242 0.8251682526
O 2.6108489504 1.5437304769 -0.9438889919
O 1.7349865095 -0.0511846176 1.3134735683
C 1.3734603693 2.0042686223 -1.6237115266
C 4.601315343 -0.719172774 1.6702917477
C 6.13152629 -1.0418158163 1.4379233039
C 6.5313361597 0.0761774822 0.4043641769
C 5.1290370818 0.7535915183 0.1425887011
O 4.5072349451 0.7481323314 1.4865054439
H 3.9456427949 -2.3259414975 0.1954342621
H 4.8954776378 -0.8233617593 -1.4219102091
H 4.2001514706 -1.0082077791 2.661017778
H 6.6962208531 -0.947609051 2.3788948024
H 6.2794523156 -2.0582110353 1.0387088297
H 7.2278739611 0.8040730753 0.8504395507
H 6.9838849023 -0.3305082562 -0.5140724614
H 5.1606496778 1.7816580009 -0.2662962487
O -1.5215112717 0.4455119719 -1.8439530093
C -0.7720246001 2.3088823812 1.5282731986
C -5.1500255826 0.0848314389 0.9899697247
C -6.5445308014 0.2877038129 0.2752961686
C -6.3537953832 -0.58432115 -1.0217095702
C -4.8744056291 -1.102912938 -0.8241193018
O -4.7724707987 -1.3035523318 0.6390612499
H -4.3986250881 1.987894392 0.0282727565
H -4.2123524082 0.7030093869 -1.9860281818
H -0.0916174923 1.4906464811 1.2088028035
H -5.1574126896 0.2140955752 2.089501637
H -7.3603241945 -0.0986727657 0.9065012594
H -6.7438679272 1.3475115246 0.0496739584
H -7.0573290228 -1.431736164 -1.0440514537
H -6.471589577 -0.0016073489 -1.9492878916
H -4.6197124071 -2.0361785342 -1.3618776325
H -0.9029539858 2.2433509364 2.6274839127
H -0.3220825711 3.2845089195 1.2693230055
H 1.0797617177 2.9369641924 -1.1090540971
H 0.5456435187 1.2645450887 -1.5492204028
H 1.5565015703 2.2166446895 -2.6966014435
H -0.0702459138 -0.7352788358 0.6891691195
H -0.3736603532 -2.4741659152 1.0458312236
H -0.3108360185 -1.2503239816 -1.8298483788
H -0.7069607899 -2.9838326547 -1.4099549206
$end

$rem
JOBTYPE                   OPT
METHOD                    B3LYP
DFT_D                     d3_op
BASIS                     STO-3G
GEOM_OPT_MAX_CYCLES       100
GEOM_OPT_TOL_GRADIENT     300
GEOM_OPT_TOL_DISPLACEMENT 1200
GEOM_OPT_TOL_ENERGY       100
SYMMETRY                  False
THRESH                    12
SCF_CONVERGENCE           8
MAX_SUB_FILE_NUM          128
MEM_STATIC                400
MEM_TOTAL                 4000
$end
