$molecule
0  1
O -1.9554674125 1.3517597008 0.8430036498
C -2.6609100277 1.4687040097 -0.1835905356
C -4.053882213 0.7979142266 -0.4679555984
C -3.9374068966 -0.7496357472 -0.8324757233
C -2.4421817007 -1.2172712627 -0.8114149281
O -2.1789244641 -1.9840402836 0.3700568487
C -0.7869949212 -2.4919800514 0.3278278162
C 0.0779604524 -1.6398218313 1.3254359368
O 1.4717839818 -2.1544558054 1.2601955724
C 2.3751663198 -1.0298306388 1.1162995741
C 3.1541840276 -1.1062822401 -0.2459564534
C 3.3358806838 0.3215906645 -0.9224940482
C 2.7614973458 1.4934801092 -0.0425233767
O 1.5812576439 1.9132889628 -0.0537396099
O -2.3187223619 2.2660704111 -1.3169349837
O 3.8075851113 2.0840284007 0.7256684579
O 2.4350744044 -0.0883933934 1.9371410368
C 3.2458853853 3.1197717034 1.6227834955
C 4.6732971549 -1.5597736535 -0.0908616379
C 5.1916481779 -2.0062692641 -1.5133222427
C 5.3424715187 -0.6125443134 -2.2288090609
C 4.9134674071 0.3763221695 -1.0724942326
O 5.3926493017 -0.2929744001 0.1598520165
H 2.6013520162 -1.7988311496 -0.9043955315
H 2.8199803952 0.3536245523 -1.8991309541
H 4.8567326859 -2.2822807505 0.7280141598
H 6.1616348648 -2.5209112941 -1.4235716689
H 4.4817425781 -2.675669776 -2.0248354917
H 6.3843920618 -0.4228471917 -2.5316409565
H 4.6942471998 -0.5182078058 -3.1146313583
H 5.3307384674 1.3986773375 -1.1437035887
O -1.5880945446 -0.9842912609 -1.6969151977
C -1.0387255366 2.9806747311 -1.0889002601
C -4.9610067073 0.7247528302 0.8327185305
C -6.4447313962 0.4328816445 0.3765701723
C -6.346649029 -1.0888683901 -0.0142846884
C -4.8294952278 -1.3922680193 0.3074282045
O -4.5436847282 -0.5382084293 1.4834848537
H -4.5449847135 1.3589369765 -1.28216002
H -4.3388344377 -0.9448194758 -1.8431873067
H -0.2078654275 2.3095865154 -0.7736909578
H -4.8348982937 1.5764511328 1.5285489565
H -7.1436212871 0.5908426926 1.2133054789
H -6.7527943386 1.0705483458 -0.467476094
H -7.0038485127 -1.7109001171 0.6140807911
H -6.5930345401 -1.2725471501 -1.0723774548
H -4.5940557591 -2.4500756728 0.5314217573
H -1.1621929494 3.7671747942 -0.316504657
H -0.7884991416 3.4584019073 -2.0537347169
H 4.1077140901 3.5566031022 2.1596393247
H 2.5396102223 2.6715133157 2.3509539721
H 2.7175428816 3.9116434015 1.053491046
H 0.0054362977 -0.5659563198 1.0483278809
H -0.3270878417 -1.7524133625 2.355751615
H -0.3883377845 -2.3916318906 -0.7040702255
H -0.8060293296 -3.556472255 0.6376377023
$end

$rem
JOBTYPE                   OPT
METHOD                    B3LYP
DFT_D                     d3_op
BASIS                     STO-3G
GEOM_OPT_MAX_CYCLES       100
GEOM_OPT_TOL_GRADIENT     300
GEOM_OPT_TOL_DISPLACEMENT 1200
GEOM_OPT_TOL_ENERGY       100
SYMMETRY                  False
THRESH                    12
SCF_CONVERGENCE           8
MAX_SUB_FILE_NUM          128
MEM_STATIC                400
MEM_TOTAL                 4000
$end
