$molecule
0  1
O 3.1752049072 -1.1654493538 0.2499442347
C 3.1353300897 -0.2088877257 -0.5111503231
C 2.2516141322 1.0075228953 -0.3429350182
C 0.7333606707 0.7975294886 -0.4632077761
C 0.2791577476 -0.6311685191 -0.5699424366
O -1.0009942079 -0.6855212828 -0.2379285811
C -1.8317972204 -1.2253321718 -1.2511428442
C -2.5889194229 -2.4464333021 -0.6935429217
O -2.7760367839 -2.3134508783 0.7738954463
C -2.0703157957 -1.2718513461 1.3264412915
C -2.2394339636 0.0109369805 0.55274392
C -1.056502354 0.4216405124 -0.3240696604
C -0.0739440971 -0.6839782286 -0.490621454
O 0.0226553301 -1.4627002358 -1.4333763
O 3.9971748538 -0.1795353592 -1.5634934422
O 0.2708238495 -1.3044253929 1.3520060057
O -1.8702998446 -1.2770498137 2.5368663807
C 0.9711717676 -2.3436419538 2.0353606984
C -3.4795740019 0.7692894505 -0.2896197974
C -3.5820510908 2.2861217992 -0.1597631866
C -2.4143145544 2.7431055101 -1.0666445445
C -1.8487073756 1.3720796911 -1.5111927296
O -3.1179956666 0.8169183211 -1.6806514328
H -2.3791247932 0.6226134695 1.4948181878
H -1.1543260616 1.4399234021 0.2183067322
H -4.4521691408 0.2703777071 -0.0815934563
H -4.5295269182 2.5721061317 -0.6901793152
H -3.626258856 2.6680887173 0.872584638
H -2.8415151231 3.2111085587 -1.9918603728
H -1.7185845507 3.4665492293 -0.6193369279
H -1.2711779487 1.4658968079 -2.4578607034
O 1.4776267578 -1.9817065302 -0.3582637176
C 4.9263632584 -1.1597531879 -1.8403540675
C 2.6767177932 1.7190669882 0.9355941378
C 2.2114717987 3.1719642065 0.9898167068
C 0.7387391396 2.9644101986 1.0805377901
C 0.7305607307 1.4316093021 1.1579653778
O 1.890510313 1.0774840776 1.838143678
H 2.5934077096 1.6757366233 -1.1733555055
H 0.548121861 1.555416013 -1.3096387764
H 4.4156914547 -2.1235871476 -2.0476676052
H 3.7674193683 1.6609000984 1.1438832056
H 2.5579643369 3.5954987977 1.96007951
H 2.5439297296 3.8219458607 0.1539238108
H 0.3429436838 3.4436769692 2.0032489498
H 0.1820983523 3.3287698062 0.1949813393
H -0.115296133 1.151984827 1.8327520827
H 5.6243079381 -1.2780197138 -0.9835752574
H 5.511517543 -0.8614777171 -2.7345308459
H 1.63350654 -1.8895161106 2.7987647514
H 1.6656284349 -3.0136365327 1.4770443621
H 0.268846362 -3.0587675935 2.4977425557
H -3.491085896 -2.9421015115 -1.181925777
H -1.8619937276 -3.2813487363 -0.7968845419
H -1.7586595389 -1.0412142676 -2.394229182
H -2.8940953482 -1.099348754 -1.3744211109
$end

$rem
JOBTYPE                   OPT
METHOD                    B3LYP
DFT_D                     d3_op
BASIS                     STO-3G
GEOM_OPT_MAX_CYCLES       100
GEOM_OPT_TOL_GRADIENT     300
GEOM_OPT_TOL_DISPLACEMENT 1200
GEOM_OPT_TOL_ENERGY       100
SYMMETRY                  False
THRESH                    12
SCF_CONVERGENCE           8
MAX_SUB_FILE_NUM          128
MEM_STATIC                400
MEM_TOTAL                 4000
$end
