$molecule
0  1
O -1.2832183604 -2.3068761695 -0.5881507627
C -1.9007597345 -1.2522242352 -0.5512972003
C -2.4409220911 -0.5973440316 0.7008806384
C -1.9815970076 0.8398944626 0.9962319094
C -1.1746878071 1.525468785 -0.0840324049
O -0.4885941963 0.5952456967 -0.811628193
C -0.430683659 0.9036106923 -2.2083374351
C 0.9529542627 1.4314440853 -2.573154899
O 1.5453929845 2.078554532 -1.4359881573
C 1.4755010748 1.3886726744 -0.2705189535
C 1.4355086288 -0.1072475693 -0.4737705986
C 2.7511961926 -0.837545769 -0.1673556946
C 3.777388131 -0.0478802179 0.62007691
O 4.0332287552 -0.2021671629 1.8055332603
O -2.5359018728 -0.8719626276 -1.6969815588
O 4.3877760079 0.9647548544 -0.0512750755
O 1.6980905598 1.9194473305 0.8074788024
C 5.3153723825 1.8193420865 0.5059954921
C 0.858752277 -1.2586269793 0.5824171034
C 0.9177751535 -2.767839011 -0.0310357508
C 2.2403934305 -3.2545608096 0.2129700732
C 2.6853811947 -2.0111300419 0.8209239881
O 1.7114520614 -1.4920979126 1.6524649583
H 1.2309889018 -0.6086556 -1.4412863856
H 3.3051767885 -1.1342417764 -1.0903485451
H -0.0842136481 -0.9832261604 1.0123872212
H 0.2664791831 -3.4513070185 0.571030123
H 0.7501123489 -2.8475889733 -1.1330775664
H 2.2501991474 -4.0728270277 0.9734476044
H 2.8429018781 -3.5248910448 -0.683878121
H 3.6334698496 -2.3394997101 1.3225198295
O -1.0689902092 2.7389045828 -0.2216675203
C -2.6481807144 -1.6629121288 -2.826054927
C -3.9691111605 -0.4115965806 0.6347295428
C -4.5479971791 -0.251726926 2.0405095017
C -4.0846616076 1.1484812477 2.3737150293
C -3.3682073941 1.5215957834 1.0729285845
O -4.1209863963 0.8692991743 0.0809841166
H -2.2127687271 -1.282155944 1.5490204431
H -1.4403638343 0.9757373356 1.9583016502
H -3.2272893802 -2.5800528116 -2.5867614628
H -4.4836651644 -1.2420542002 0.1024693935
H -5.6583090787 -0.2467110227 1.9571402595
H -4.2338024649 -1.040737299 2.7572385101
H -4.9829217351 1.7939152904 2.4987810307
H -3.431053119 1.2356039253 3.268365155
H -3.3119741032 2.6290531503 0.986697795
H -1.6476685425 -1.9569132015 -3.2082663363
H -3.1861795443 -1.0976008507 -3.6141892594
H 5.6485550388 2.5457170447 -0.2631931806
H 6.1973020814 1.2460960773 0.8635514503
H 4.8609457819 2.3777824651 1.3521409179
H 1.6462024997 0.651135032 -2.9552724241
H 0.8883914871 2.1277878537 -3.4360897235
H -1.1550226835 1.7131148991 -2.468448453
H -0.6719738711 0.0604480809 -2.8733643388
$end

$rem
JOBTYPE                   OPT
METHOD                    B3LYP
DFT_D                     d3_op
BASIS                     STO-3G
GEOM_OPT_MAX_CYCLES       100
GEOM_OPT_TOL_GRADIENT     300
GEOM_OPT_TOL_DISPLACEMENT 1200
GEOM_OPT_TOL_ENERGY       100
SYMMETRY                  False
THRESH                    12
SCF_CONVERGENCE           8
MAX_SUB_FILE_NUM          128
MEM_STATIC                400
MEM_TOTAL                 4000
$end
