$molecule
0  1
O -3.94934 -3.66094 2.70899
C -3.26408 -4.56952 2.26188
C -3.36658 -6.02376 2.66595
C -2.11631 -6.89703 2.47081
C -0.84972 -6.17925 2.06015
O 0.20441 -6.64055 2.79597
C 1.42699 -5.94712 2.52448
C 2.33246 -6.80287 1.64473
O 1.98958 -6.61687 0.26245
C 2.55644 -5.54189 -0.3394
C 1.98286 -5.26364 -1.70843
C 2.91875 -4.50449 -2.66031
C 4.37694 -4.45209 -2.25086
O 5.32931 -4.46661 -3.01723
O -2.76464 -4.34613 1.01914
O 4.65969 -3.87882 -1.0541
O 2.92133 -4.60339 0.35629
C 5.92583 -3.61508 -0.56775
C 1.70427 -6.52734 -2.56097
C 0.63047 -6.2126 -3.60096
C 1.39818 -5.29642 -4.53005
C 2.79834 -5.39304 -3.91238
O 2.8483 -6.68549 -3.36204
H 1.01693 -4.73369 -1.54405
H 2.59198 -3.45468 -2.8269
H 1.39709 -7.41908 -1.97407
H 0.41702 -7.16444 -4.13883
H -0.32172 -5.79828 -3.20507
H 1.37765 -5.73617 -5.55184
H 1.04385 -4.24305 -4.55877
H 3.56899 -5.16054 -4.67961
O -0.70084 -5.62546 0.97889
C -2.71819 -3.11831 0.38889
C -3.6074 -6.19812 4.18054
C -4.31647 -7.52385 4.4385
C -3.20297 -8.4985 4.12968
C -2.03998 -7.52595 3.88879
O -2.32979 -6.43077 4.71959
H -4.24453 -6.42583 2.11137
H -2.2856 -7.67385 1.6926
H -2.10879 -2.40708 0.98661
H -4.18593 -5.36784 4.64109
H -4.53356 -7.56623 5.53026
H -5.2592 -7.68439 3.8725
H -3.02295 -9.11991 5.0352
H -3.37458 -9.15296 3.24778
H -1.0911 -8.0635 4.09895
H -3.74416 -2.71465 0.2532
H -2.24806 -3.24006 -0.6084
H 5.83967 -3.15586 0.43815
H 6.4579 -2.907 -1.23828
H 6.50414 -4.55981 -0.48098
H 3.39989 -6.52436 1.80964
H 2.24882 -7.87266 1.93192
H 1.92889 -5.86471 3.51187
H 1.30868 -4.89425 2.18289
$end

$opt
CONSTRAINT
tors           1           2           3           4    -155.438
tors           3           4           5           6    +135.418
tors           4           5           6           7    -176.227
tors           5           6           7           8    -103.494
tors           6           7           8           9     +85.056
tors           7           8           9          10     +84.108
tors           8           9          10          11    -170.241
tors           9          10          11          12    -155.087
tors          11          12          13          14    +145.553
ENDCONSTRAINT
$end

$rem
JOBTYPE                   OPT
METHOD                    B3LYP
DFT_D                     d3_op
BASIS                     STO-3G
GEOM_OPT_MAX_CYCLES       100
GEOM_OPT_TOL_GRADIENT     300
GEOM_OPT_TOL_DISPLACEMENT 1200
GEOM_OPT_TOL_ENERGY       100
SYMMETRY                  False
THRESH                    12
SCF_CONVERGENCE           8
MAX_SUB_FILE_NUM          128
MEM_STATIC                400
MEM_TOTAL                 4000
$end
