$molecule
0  1
O -3.3999488077 0.9892433928 1.4233211698
C -4.5016379362 1.1653221792 0.8560462416
C -5.0644947881 0.381699104 -0.3753811263
C -3.9313624468 -0.3516214415 -1.2059566765
C -2.4724133191 0.0343585023 -0.7556315567
O -1.8570667458 -1.0829300144 -0.0999730386
C -0.4959384373 -0.7180169695 0.3527561683
C 0.5717831899 -1.0136235708 -0.7774608285
O 1.6582029672 -0.0057066627 -0.8132899319
C 2.5053788302 -0.1408114518 0.3317801838
C 3.5785264071 1.013741738 0.3382697033
C 5.0695652232 0.4637244231 0.4133217192
C 5.1797025203 -1.0674553303 0.7314511547
O 5.4740741028 -1.9916184756 -0.0569282262
O -5.4864352061 2.1073786308 1.2858897969
O 4.9782601033 -1.2390163203 2.1382392693
O 2.3785301167 -1.054463605 1.176865755
C 4.9834853301 -2.6796138382 2.4787410072
C 3.6296980629 1.7687265044 -1.0531607482
C 4.5692994749 3.0339861468 -0.9306967301
C 5.9964515612 2.3741844031 -1.0050046714
C 5.6104059314 0.8450622721 -1.0295298087
O 4.4048065124 0.8215663908 -1.8905594421
H 3.3585711476 1.6873749995 1.1869938771
H 5.6249800965 1.0039141382 1.2012887133
H 2.6350417496 1.9554257645 -1.5004036311
H 4.3967588881 3.7247544018 -1.7709368071
H 4.4043863387 3.579102365 0.0127817157
H 6.519540965 2.6517527408 -1.9340659881
H 6.6351213497 2.6350301876 -0.1460328136
H 6.3810427218 0.1540620701 -1.4230404066
O -1.8871481921 1.1124369668 -0.9995089156
C -5.0067463229 2.8299484574 2.487463024
C -5.9220906166 -0.8679936844 0.1139157533
C -6.709225986 -1.45257482 -1.1256648913
C -5.5588182151 -2.2073069052 -1.8892961693
C -4.316533115 -1.8727653219 -0.9727113296
O -4.8882428048 -1.8877660243 0.3945487838
H -5.6658719442 1.0684381966 -0.9970461479
H -4.0174317309 -0.0803018589 -2.2739929194
H -4.0810968824 3.4029534694 2.2749028795
H -6.5374023275 -0.6743726618 1.0142606692
H -7.4974230413 -2.145259888 -0.7899092524
H -7.1724846872 -0.6575899361 -1.731625942
H -5.7365896395 -3.2942267028 -1.9131347497
H -5.4242491355 -1.8478245931 -2.9219375608
H -3.46534679 -2.5759675941 -1.0430969908
H -4.8053869688 2.1347705241 3.3279593255
H -5.8176635745 3.526776444 2.768288484
H 4.9396808109 -2.734993369 3.5818855886
H 5.9011748929 -3.1838090623 2.1130254216
H 4.0992067056 -3.1927752518 2.0482261349
H 0.9879023465 -2.0358738836 -0.6548038595
H 0.0845777725 -0.937560751 -1.7706469547
H -0.2867331325 -1.3256415225 1.2547273279
H -0.4574245613 0.3634477861 0.6055269985
$end

$rem
JOBTYPE                   OPT
METHOD                    B3LYP
DFT_D                     d3_op
BASIS                     STO-3G
GEOM_OPT_MAX_CYCLES       100
GEOM_OPT_TOL_GRADIENT     300
GEOM_OPT_TOL_DISPLACEMENT 1200
GEOM_OPT_TOL_ENERGY       100
SYMMETRY                  False
THRESH                    12
SCF_CONVERGENCE           8
MAX_SUB_FILE_NUM          128
MEM_STATIC                400
MEM_TOTAL                 4000
$end
