$molecule
0  1
O -3.94934 -3.66094 2.70899
C -3.26408 -4.56952 2.26188
C -3.36658 -6.02376 2.66595
C -4.03945 -6.33287 4.01337
C -4.69326 -5.16829 4.72358
O -6.04506 -5.20809 4.53265
C -6.72057 -4.05547 5.04686
C -6.84729 -4.15356 6.56359
O -6.50573 -2.89509 7.16564
C -7.39806 -1.89308 6.96845
C -6.92992 -0.57009 7.52631
C -8.05287 0.40748 7.90264
C -9.44166 -0.19005 8.00715
O -10.07079 -0.34417 9.04397
O -2.45618 -4.31185 1.19991
O -10.08144 -0.43869 6.83409
O -8.2293 -1.9447 6.0725
C -11.36554 -0.93279 6.73343
C -6.1739 -0.66044 8.87416
C -5.26887 0.55991 9.03385
C -6.29814 1.64626 9.25997
C -7.57682 0.80224 9.31699
O -7.15632 -0.42852 9.85085
H -6.24547 -0.13996 6.76059
H -8.12087 1.29172 7.23135
H -5.57119 -1.58461 9.00246
H -4.69412 0.41464 9.97696
H -4.55834 0.74497 8.19972
H -6.09265 2.12447 10.24342
H -6.35723 2.41936 8.46345
H -8.36149 1.34104 9.89285
O -4.07519 -4.27915 5.29957
C -2.28557 -3.06421 0.63742
C -4.21449 -6.85285 1.69012
C -3.79755 -8.3196 1.76282
C -4.35182 -8.70093 3.11859
C -5.05648 -7.39567 3.5097
O -5.49014 -6.8673 2.27936
H -2.31638 -6.3944 2.68375
H -3.35879 -6.8072 4.75457
H -1.87318 -2.35864 1.3901
H -4.16162 -6.48642 0.64142
H -4.36874 -8.8663 0.97858
H -2.71081 -8.50619 1.62421
H -5.09913 -9.51289 2.9742
H -3.59646 -9.01144 3.87236
H -5.84885 -7.61825 4.25794
H -3.25544 -2.68075 0.25439
H -1.57275 -3.14115 -0.209
H -11.63057 -1.04032 5.6617
H -12.0842 -0.23329 7.21144
H -11.43014 -1.92969 7.21965
H -7.82974 -4.55757 6.89449
H -6.0818 -4.86092 6.94523
H -7.7358 -3.98157 4.60343
H -6.17818 -3.13479 4.72539
$end

$opt
CONSTRAINT
tors           1           2           3           4     -20.198
tors           3           4           5           6    +101.305
tors           4           5           6           7    -173.342
tors           5           6           7           8     -77.249
tors           6           7           8           9    +135.216
tors           7           8           9          10     +70.455
tors           8           9          10          11    -175.243
tors           9          10          11          12    -154.155
tors          11          12          13          14    +110.026
ENDCONSTRAINT
$end

$rem
JOBTYPE                   OPT
METHOD                    B3LYP
DFT_D                     d3_op
BASIS                     STO-3G
GEOM_OPT_MAX_CYCLES       100
GEOM_OPT_TOL_GRADIENT     300
GEOM_OPT_TOL_DISPLACEMENT 1200
GEOM_OPT_TOL_ENERGY       100
SYMMETRY                  False
THRESH                    12
SCF_CONVERGENCE           8
MAX_SUB_FILE_NUM          128
MEM_STATIC                400
MEM_TOTAL                 4000
$end
