$molecule
0  1
O 3.0208645537 -0.8741526044 1.4287734198
C 4.2539414178 -0.9051482398 1.2152582347
C 5.0032180663 -0.4784846785 -0.0907159462
C 4.0222438805 -0.1429682501 -1.2894941628
C 2.5006298528 -0.3824359588 -0.9603321021
O 1.9181601873 0.84775136 -0.5040328228
C 0.5035992469 0.6360253111 -0.1266064013
C -0.453961783 0.6422688292 -1.3890400228
O -1.5799520632 -0.3187613671 -1.2733353467
C -2.4206456388 0.0199040827 -0.1708787444
C -3.5874011746 -1.0289098392 -0.0592569763
C -4.8969896852 -0.3920808004 0.56649448
C -4.6863304318 1.0126138642 1.2399051136
O -5.0491675637 2.12739741 0.8076925215
O 5.2208164266 -1.3360238958 2.1742788073
O -4.1530861295 0.7840451341 2.553575118
O -2.262162472 1.0398011558 0.5384131394
C -3.8712156966 2.0792596173 3.20942461
C -4.119479669 -1.4126571577 -1.503771822
C -5.1717846671 -2.5857550728 -1.3840516208
C -6.446058849 -1.811463696 -0.8802930052
C -5.8557613732 -0.3597981589 -0.6970797475
O -4.9378925241 -0.226501206 -1.8527882058
H -3.235145895 -1.9056866831 0.5145958428
H -5.2980337938 -1.064740287 1.345719819
H -3.3155084748 -1.5657076604 -2.2486812311
H -5.3419476231 -3.0531051521 -2.3667423429
H -4.8415511485 -3.363978784 -0.677071825
H -7.2420996082 -1.8090524932 -1.6423397825
H -6.8544681644 -2.2211802905 0.0573091465
H -6.592027931 0.4672991547 -0.6909961007
O 1.8583483266 -1.4376401944 -1.1544380636
C 4.5446769563 -1.7295534136 3.4332869033
C 5.7417964735 0.9188471362 0.0948300453
C 6.7553189856 1.1064155678 -1.1019286816
C 5.7719746608 1.4560528852 -2.2796337181
C 4.3757451831 1.3843550935 -1.5430261206
O 4.6753197887 1.903809938 -0.1878111163
H 5.7217806938 -1.2745163031 -0.3570793485
H 4.2657921875 -0.7670061509 -2.1678592568
H 3.8210010025 -2.5531107843 3.2657460337
H 6.166854232 1.0774558116 1.1050341459
H 7.4475321576 1.9373146408 -0.8923662398
H 7.3446065631 0.195196872 -1.2931886934
H 5.9503605953 2.4725684984 -2.6647846575
H 5.8382427635 0.7436849651 -3.1173166932
H 3.5619150211 1.9707654926 -2.0101775502
H 4.0061489628 -0.8744406407 3.890627874
H 5.34521306 -2.0710699079 4.114868163
H -3.550824936 1.8402837776 4.2402383227
H -4.7695627591 2.729275915 3.2382875729
H -3.0580688969 2.6217754996 2.6846712337
H -0.8401873658 1.6683492089 -1.5692645656
H 0.1072808198 0.3052151047 -2.283320725
H 0.2400696238 1.4642949603 0.5591474161
H 0.390241365 -0.3341988906 0.4041883032
$end

$rem
JOBTYPE                   OPT
METHOD                    B3LYP
DFT_D                     d3_op
BASIS                     STO-3G
GEOM_OPT_MAX_CYCLES       100
GEOM_OPT_TOL_GRADIENT     300
GEOM_OPT_TOL_DISPLACEMENT 1200
GEOM_OPT_TOL_ENERGY       100
SYMMETRY                  False
THRESH                    12
SCF_CONVERGENCE           8
MAX_SUB_FILE_NUM          128
MEM_STATIC                400
MEM_TOTAL                 4000
$end
