$molecule
0  1
O -3.94934 -3.66094 2.70899
C -3.26408 -4.56952 2.26188
C -3.36658 -6.02376 2.66595
C -3.7849 -6.32259 4.11494
C -4.22606 -5.13907 4.94726
O -4.96659 -5.57007 6.01088
C -5.29136 -4.52347 6.93197
C -4.0407 -3.72318 7.28051
O -4.0497 -3.38427 8.6762
C -3.30851 -2.30126 9.01807
C -2.98006 -2.25435 10.49136
C -4.05912 -1.61162 11.37499
C -5.42248 -1.44223 10.73525
O -6.49244 -1.4847 11.32512
O -2.22512 -4.25617 1.44371
O -5.43643 -0.84527 9.51208
O -2.67923 -1.62921 8.20915
C -6.57597 -0.51068 8.80983
C -2.82277 -3.62915 11.17154
C -1.95583 -3.48985 12.42143
C -2.89698 -2.73082 13.3344
C -4.16 -2.69917 12.46517
O -4.09136 -3.89112 11.71894
H -2.01861 -1.69842 10.58485
H -3.75866 -0.61571 11.76831
H -2.40505 -4.40855 10.49728
H -1.81245 -4.51528 12.83181
H -0.9624 -3.01694 12.26556
H -3.0625 -3.34027 14.25052
H -2.56788 -1.70586 13.61155
H -5.05915 -2.57908 13.1083
O -3.4957 -4.16235 4.94434
C -1.93651 -2.97998 1.0075
C -4.52505 -6.69434 1.89752
C -4.29579 -8.2015 1.82055
C -4.54915 -8.59273 3.25815
C -4.99928 -7.24445 3.83469
O -5.62963 -6.60036 2.75868
H -2.42434 -6.53301 2.35961
H -2.98765 -6.84597 4.68805
H -1.72171 -2.31813 1.87361
H -4.67053 -6.28255 0.87396
H -5.1121 -8.62055 1.18904
H -3.31471 -8.51946 1.40677
H -5.38099 -9.33174 3.27747
H -3.66886 -8.99533 3.80458
H -5.63939 -7.43293 4.72249
H -2.79115 -2.57266 0.42594
H -1.04201 -3.01299 0.35231
H -6.28458 -0.04731 7.84505
H -7.18423 0.21777 9.38729
H -7.1757 -1.42247 8.60151
H -3.12857 -4.35991 7.20072
H -4.01187 -2.80602 6.6455
H -5.66126 -5.04253 7.84204
H -6.10626 -3.86084 6.56676
$end

$opt
CONSTRAINT
tors           1           2           3           4     -31.707
tors           3           4           5           6    +160.042
tors           4           5           6           7    +173.194
tors           5           6           7           8     -48.861
tors           6           7           8           9    -140.577
tors           7           8           9          10    -156.483
tors           8           9          10          11    -161.053
tors           9          10          11          12     -85.263
tors          11          12          13          14    +148.512
ENDCONSTRAINT
$end

$rem
JOBTYPE                   OPT
METHOD                    B3LYP
DFT_D                     d3_op
BASIS                     STO-3G
GEOM_OPT_MAX_CYCLES       100
GEOM_OPT_TOL_GRADIENT     300
GEOM_OPT_TOL_DISPLACEMENT 1200
GEOM_OPT_TOL_ENERGY       100
SYMMETRY                  False
THRESH                    12
SCF_CONVERGENCE           8
MAX_SUB_FILE_NUM          128
MEM_STATIC                400
MEM_TOTAL                 4000
$end
