$molecule
0  1
O -3.94934 -3.66094 2.70899
C -3.26408 -4.56952 2.26188
C -3.36658 -6.02376 2.66595
C -3.06175 -6.36856 4.13293
C -2.86204 -5.20032 5.07284
O -3.38282 -5.49775 6.29993
C -2.57145 -5.03276 7.38377
C -1.38427 -5.96767 7.59037
O -0.62889 -5.55293 8.73941
C 0.68215 -5.89968 8.73155
C 1.37909 -5.59528 10.03627
C 2.13797 -4.26062 10.06877
C 1.80385 -3.28334 8.95973
O 1.45762 -2.12174 9.11906
O -2.35685 -4.28356 1.29096
O 2.07346 -3.69868 7.69374
O 1.27755 -6.33949 7.7555
C 1.86019 -2.94166 6.56075
C 0.44377 -5.38236 11.25734
C 1.20492 -5.68895 12.54637
C 2.16282 -4.51726 12.59298
C 1.64179 -3.69243 11.4098
O 0.26889 -3.98989 11.35319
H 2.00681 -6.48409 10.27258
H 3.2376 -4.41987 10.02487
H -0.48495 -5.9927 11.22125
H 0.47284 -5.58225 13.37931
H 1.67941 -6.69177 12.60918
H 2.01671 -3.98292 13.55779
H 3.2354 -4.7753 12.45557
H 1.90621 -2.62064 11.54413
O -1.99093 -4.3581 4.88514
C -2.13277 -3.02068 0.78398
C -4.79989 -6.56262 2.51829
C -4.76641 -8.07531 2.32303
C -4.35037 -8.52459 3.70603
C -4.34827 -7.18125 4.4487
O -5.35149 -6.43519 3.80529
H -2.68937 -6.59163 1.98682
H -2.14642 -6.99455 4.22533
H -1.79359 -2.33853 1.59273
H -5.36728 -6.08079 1.69169
H -5.81562 -8.40279 2.14282
H -4.12243 -8.43632 1.49246
H -5.14233 -9.19627 4.10637
H -3.36075 -9.02714 3.76598
H -4.5091 -7.38298 5.52862
H -3.06167 -2.62331 0.32176
H -1.34249 -3.07529 0.00747
H 2.16399 -3.52815 5.6696
H 2.46558 -2.01105 6.60085
H 0.7823 -2.68731 6.47011
H -1.7358 -7.01207 7.73722
H -0.77666 -5.91936 6.65954
H -3.18619 -5.08752 8.30717
H -2.26627 -3.96785 7.26685
$end

$opt
CONSTRAINT
tors           1           2           3           4     -62.443
tors           3           4           5           6    +143.760
tors           4           5           6           7    +140.012
tors           5           6           7           8     -78.153
tors           6           7           8           9    -175.777
tors           7           8           9          10    -153.852
tors           8           9          10          11    -172.592
tors           9          10          11          12     -96.267
tors          11          12          13          14    +126.467
ENDCONSTRAINT
$end

$rem
JOBTYPE                   OPT
METHOD                    B3LYP
DFT_D                     d3_op
BASIS                     STO-3G
GEOM_OPT_MAX_CYCLES       100
GEOM_OPT_TOL_GRADIENT     300
GEOM_OPT_TOL_DISPLACEMENT 1200
GEOM_OPT_TOL_ENERGY       100
SYMMETRY                  False
THRESH                    12
SCF_CONVERGENCE           8
MAX_SUB_FILE_NUM          128
MEM_STATIC                400
MEM_TOTAL                 4000
$end
