$molecule
0  1
O -3.94934 -3.66094 2.70899
C -3.26408 -4.56952 2.26188
C -3.36658 -6.02376 2.66595
C -2.76614 -6.41941 4.02491
C -2.28878 -5.28688 4.90673
O -2.51865 -5.59137 6.21817
C -1.68575 -4.85653 7.12124
C -1.16645 -5.77481 8.22271
O -0.92259 -5.01632 9.41774
C 0.37601 -4.93053 9.79911
C 0.56439 -4.14008 11.07205
C 0.59597 -2.61572 10.88876
C 0.08808 -2.09959 9.55746
O -0.94701 -1.47126 9.38909
O -2.42988 -4.30088 1.22272
O 0.88874 -2.33299 8.48442
O 1.27847 -5.60859 9.32357
C 0.68869 -1.78343 7.2345
C -0.5557 -4.29715 12.11729
C -0.01043 -3.97546 13.50736
C 0.18542 -2.47711 13.3939
C -0.4042 -2.22553 12.0004
O -1.40781 -3.20542 11.87359
H 1.52616 -4.48791 11.51489
H 1.60005 -2.1668 11.05505
H -1.02719 -5.30411 12.1083
H -0.83266 -4.17296 14.23217
H 0.89098 -4.54942 13.81219
H -0.43114 -1.98379 14.17785
H 1.23866 -2.12819 13.46078
H -0.74003 -1.16849 11.9157
O -1.48001 -4.45375 4.51318
C -2.23786 -3.04595 0.68378
C -4.82192 -6.49292 2.81998
C -4.90496 -8.00287 2.61631
C -4.23856 -8.49188 3.88327
C -4.00136 -7.16086 4.60918
O -5.07804 -6.35502 4.19578
H -2.86918 -6.60691 1.85664
H -1.89448 -7.10082 3.9057
H -1.83785 -2.35542 1.45688
H -5.52549 -5.97195 2.13388
H -5.98305 -8.28009 2.65153
H -4.46 -8.37858 1.66984
H -4.97099 -9.11594 4.44263
H -3.2932 -9.05778 3.73686
H -3.93907 -7.36674 5.69845
H -3.19587 -2.64934 0.28472
H -1.50605 -3.11486 -0.147
H 1.4674 -2.16145 6.54094
H 0.76637 -0.67676 7.29113
H -0.3116 -2.05693 6.84084
H -1.96934 -6.4952 8.48963
H -0.32012 -6.37932 7.82836
H -2.36675 -4.12837 7.61346
H -0.83765 -4.28143 6.69599
$end

$opt
CONSTRAINT
tors           1           2           3           4     -75.831
tors           3           4           5           6    +144.912
tors           4           5           6           7    +158.059
tors           5           6           7           8    -137.351
tors           6           7           8           9    -151.736
tors           7           8           9          10    -113.947
tors           8           9          10          11    -179.090
tors           9          10          11          12     -82.064
tors          11          12          13          14    +110.469
ENDCONSTRAINT
$end

$rem
JOBTYPE                   OPT
METHOD                    B3LYP
DFT_D                     d3_op
BASIS                     STO-3G
GEOM_OPT_MAX_CYCLES       100
GEOM_OPT_TOL_GRADIENT     300
GEOM_OPT_TOL_DISPLACEMENT 1200
GEOM_OPT_TOL_ENERGY       100
SYMMETRY                  False
THRESH                    12
SCF_CONVERGENCE           8
MAX_SUB_FILE_NUM          128
MEM_STATIC                400
MEM_TOTAL                 4000
$end
