$molecule
0  1
O -3.94934 -3.66094 2.70899
C -3.26408 -4.56952 2.26188
C -3.36658 -6.02376 2.66595
C -3.44721 -6.33102 4.17026
C -3.59547 -5.14266 5.09433
O -4.70018 -5.30197 5.88151
C -4.85515 -4.26091 6.85178
C -3.85721 -4.45 7.98954
O -4.07032 -3.45041 8.99864
C -2.96317 -2.7726 9.39099
C -3.25025 -1.74533 10.46008
C -4.16529 -0.59276 10.02128
C -4.93256 -0.81199 8.73289
O -6.14267 -0.69932 8.60063
O -2.26409 -4.26316 1.39391
O -4.17159 -0.86319 7.60681
O -1.82364 -3.00623 9.00702
C -4.64165 -0.56751 6.34162
C -4.02462 -2.28568 11.67722
C -3.73863 -1.40779 12.89367
C -4.46987 -0.13808 12.50373
C -5.1511 -0.59803 11.20785
O -5.37018 -1.97491 11.40577
H -2.26388 -1.35601 10.8033
H -3.61145 0.36532 9.90875
H -3.80095 -3.35126 11.90278
H -4.26853 -1.87361 13.75555
H -2.66652 -1.27552 13.15429
H -5.22017 0.08952 13.2931
H -3.82212 0.74729 12.32415
H -6.0559 0.01856 11.01362
O -2.77137 -4.23969 5.18718
C -1.99157 -2.98948 0.94036
C -4.69282 -6.65467 2.18599
C -4.50689 -8.15765 2.00156
C -4.36762 -8.59791 3.44231
C -4.67438 -7.27827 4.16583
O -5.55064 -6.60308 3.30021
H -2.53061 -6.56545 2.16587
H -2.52693 -6.85362 4.5124
H -1.7344 -2.326 1.79367
H -5.08421 -6.20157 1.24845
H -5.46997 -8.54842 1.60053
H -3.68025 -8.47074 1.32817
H -5.14427 -9.36751 3.64854
H -3.36393 -8.98238 3.72593
H -5.06166 -7.51111 5.18114
H -2.87064 -2.58045 0.3978
H -1.12834 -3.02785 0.24477
H -3.83127 -0.73446 5.60267
H -4.95158 0.49819 6.2966
H -5.51408 -1.20108 6.07939
H -4.05365 -5.44395 8.4456
H -2.82259 -4.48565 7.5937
H -5.87735 -4.33066 7.28069
H -4.75766 -3.26722 6.37988
$end

$opt
CONSTRAINT
tors           1           2           3           4     -46.086
tors           3           4           5           6    +124.610
tors           4           5           6           7    +175.791
tors           5           6           7           8     -75.205
tors           6           7           8           9    -176.557
tors           7           8           9          10    -129.641
tors           8           9          10          11    -179.526
tors           9          10          11          12     -64.601
tors          11          12          13          14    +126.593
ENDCONSTRAINT
$end

$rem
JOBTYPE                   OPT
METHOD                    B3LYP
DFT_D                     d3_op
BASIS                     STO-3G
GEOM_OPT_MAX_CYCLES       100
GEOM_OPT_TOL_GRADIENT     300
GEOM_OPT_TOL_DISPLACEMENT 1200
GEOM_OPT_TOL_ENERGY       100
SYMMETRY                  False
THRESH                    12
SCF_CONVERGENCE           8
MAX_SUB_FILE_NUM          128
MEM_STATIC                400
MEM_TOTAL                 4000
$end
