$molecule
0  1
O -3.94934 -3.66094 2.70899
C -3.26408 -4.56952 2.26188
C -3.36658 -6.02376 2.66595
C -2.07301 -6.8542 2.63593
C -0.79034 -6.09545 2.37683
O -0.31033 -6.40548 1.13631
C 0.77167 -5.56347 0.72455
C 2.01351 -6.4031 0.44347
O 2.10061 -6.69326 -0.96049
C 3.35107 -6.66768 -1.48473
C 3.55375 -7.69447 -2.57344
C 4.34068 -7.1965 -3.79452
C 5.10203 -5.89976 -3.60605
O 5.98911 -5.48578 -4.33835
O -2.55381 -4.32411 1.12834
O 4.41247 -4.89402 -2.99685
O 4.31686 -6.20346 -0.88438
C 4.83559 -3.58417 -2.8775
C 4.4363 -8.87894 -2.13033
C 4.1391 -10.09534 -3.00527
C 4.74088 -9.64796 -4.32197
C 5.38633 -8.32449 -3.8924
O 5.7335 -8.53107 -2.54473
H 2.5541 -8.09363 -2.86359
H 3.71504 -7.08937 -4.70754
H 4.31698 -9.13694 -1.05508
H 4.74864 -10.93623 -2.60278
H 3.07396 -10.40843 -3.05308
H 5.51236 -10.39046 -4.62433
H 4.01417 -9.49156 -5.14853
H 6.22625 -8.06836 -4.57533
O -0.37981 -5.20567 3.11503
C -2.41178 -3.08212 0.54597
C -3.75396 -6.19568 4.151
C -4.37228 -7.57617 4.37471
C -3.14541 -8.45734 4.26625
C -2.05731 -7.39706 4.07362
O -2.52207 -6.30046 4.82311
H -4.15951 -6.46469 2.02119
H -2.15329 -7.67558 1.88665
H -1.91966 -2.38287 1.25527
H -4.44755 -5.40978 4.5214
H -4.73997 -7.613 5.42524
H -5.20502 -7.83132 3.68455
H -2.99897 -8.97776 5.239
H -3.16392 -9.19968 3.4392
H -1.06235 -7.80314 4.36179
H -3.4043 -2.68129 0.24873
H -1.77823 -3.17642 -0.35971
H 4.07016 -3.0052 -2.32131
H 4.96758 -3.12734 -3.8814
H 5.79301 -3.54389 -2.31543
H 2.86332 -5.76611 0.7775
H 2.04353 -7.32137 1.06879
H 1.07054 -4.80357 1.48065
H 0.49419 -4.96385 -0.16898
$end

$opt
CONSTRAINT
tors           1           2           3           4    -148.060
tors           3           4           5           6    -109.756
tors           4           5           6           7    +170.015
tors           5           6           7           8    +120.879
tors           6           7           8           9     +95.901
tors           7           8           9          10    +141.591
tors           8           9          10          11    +145.186
tors           9          10          11          12    +138.115
tors          11          12          13          14    +164.087
ENDCONSTRAINT
$end

$rem
JOBTYPE                   OPT
METHOD                    B3LYP
DFT_D                     d3_op
BASIS                     STO-3G
GEOM_OPT_MAX_CYCLES       100
GEOM_OPT_TOL_GRADIENT     300
GEOM_OPT_TOL_DISPLACEMENT 1200
GEOM_OPT_TOL_ENERGY       100
SYMMETRY                  False
THRESH                    12
SCF_CONVERGENCE           8
MAX_SUB_FILE_NUM          128
MEM_STATIC                400
MEM_TOTAL                 4000
$end
