$molecule
0  1
O -1.7960777482 1.8507478628 1.0550805803
C -2.1904401005 1.4026034566 -0.0461679407
C -3.6143912913 0.9363934845 -0.4900396959
C -3.6561706662 -0.6230237709 -0.7684618492
C -2.6503491449 -1.455882978 0.1164225252
O -1.4232996155 -1.7092779061 -0.5850063195
C -0.5234264941 -2.483976527 0.3163721453
C 0.7079904412 -2.9764850094 -0.5088902014
O 1.4572736155 -1.8720783972 -1.1579837215
C 2.5439737403 -1.4905782268 -0.2785327684
C 3.3610863556 -0.3241705633 -0.9297184198
C 3.3434632419 1.0848114467 -0.1977406545
C 2.4597218694 1.2898980305 1.0844031093
O 2.5198971363 2.2895557396 1.8326624853
O -1.3986576893 1.2666842144 -1.2230921869
O 1.4611917284 0.2686111636 1.2034731213
O 2.8361228632 -2.1159285124 0.7645902484
C 0.5553940265 0.5580818772 2.3488424052
C 4.9180647729 -0.6553065075 -0.8759384035
C 5.6677095432 0.265049333 -1.9187424534
C 5.6586228285 1.647682322 -1.1658770144
C 4.8840174446 1.2660963303 0.1545483241
O 5.3356368676 -0.1144745042 0.4365828817
H 3.0046959358 -0.2129661852 -1.9692673624
H 3.0243770708 1.8664256092 -0.9125363481
H 5.1556396016 -1.7347046712 -0.9413383438
H 6.6941942635 -0.0990682831 -2.0834912651
H 5.1462476948 0.303779024 -2.8883577309
H 6.6801914248 1.9845004293 -0.9280963699
H 5.1479533811 2.4416349991 -1.7340537643
H 5.066781736 1.9272199863 1.0240762022
O -2.8640708791 -1.8693006787 1.2773375316
C 0.0179788365 1.6068050583 -0.9824355971
C -4.8485368782 1.1315303298 0.485653147
C -6.1172654384 1.2805495132 -0.4419290583
C -6.2122035774 -0.178335534 -1.0298465998
C -5.1040837106 -0.9332211864 -0.1896941245
O -5.064553129 -0.1983008589 1.0998323905
H -3.8107715893 1.4607304227 -1.4431937375
H -3.5203390707 -0.8606092862 -1.837910252
H 0.1231905826 2.6205817052 -0.5449610602
H -4.7143533156 1.9075467014 1.2638756815
H -7.0051557294 1.5265043288 0.1626662585
H -5.9908888408 2.05130132 -1.218877977
H -7.2028670858 -0.6246284508 -0.8507347323
H -6.0018730668 -0.2128409574 -2.1112132688
H -5.3006809117 -2.0077366955 -0.0100554529
H 0.5060257251 1.579475241 -1.9732809443
H 0.4997095411 0.8687711621 -0.3024114435
H 0.2992939762 -0.410181593 2.8164917731
H -0.3642905349 1.0642223266 1.965100494
H 1.0674866507 1.2164781784 3.0757855388
H 1.3902438481 -3.5212633653 0.1796321341
H 0.3701323546 -3.6458838087 -1.325922076
H -1.0563904261 -3.3593398273 0.7470248506
H -0.1830075579 -1.843262642 1.1567799662
$end

$rem
JOBTYPE                   OPT
METHOD                    B3LYP
DFT_D                     d3_op
BASIS                     STO-3G
GEOM_OPT_MAX_CYCLES       100
GEOM_OPT_TOL_GRADIENT     300
GEOM_OPT_TOL_DISPLACEMENT 1200
GEOM_OPT_TOL_ENERGY       100
SYMMETRY                  False
THRESH                    12
SCF_CONVERGENCE           8
MAX_SUB_FILE_NUM          128
MEM_STATIC                400
MEM_TOTAL                 4000
$end
