$molecule
0  1
O 1.8640117482 2.0763356558 -0.2563068593
C 2.2116270299 1.3020300905 0.6662053091
C 3.6288492915 0.6822607025 0.8982310117
C 3.794503052 -0.8331668344 0.4530993919
C 2.6618314923 -1.4131751527 -0.4719891676
O 1.5780399565 -1.8765418837 0.3399446676
C 0.4480200164 -2.3246351813 -0.5201864916
C -0.6023878033 -2.9887509619 0.443484133
O -1.6003493406 -2.0616946953 1.037112606
C -2.3028309936 -1.3256889075 0.0221814534
C -3.3290110499 -0.3877471494 0.7405083717
C -3.4373374073 1.0803284101 0.1513006666
C -2.5452601155 1.421972439 -1.0974412197
O -2.890198706 2.1216006953 -2.0733300721
O 1.3823693305 0.8774533026 1.7406883673
O -1.2162628202 0.9242679263 -0.9053699196
O -2.2006123056 -1.5384185335 -1.2060008833
C -0.322348753 1.2984762092 -2.0296834358
C -4.822908395 -0.9016455395 0.5181352252
C -5.743088283 -0.2269051769 1.6100106558
C -5.8413552683 1.2426488651 1.0558214634
C -4.9687110657 1.1343460768 -0.2549723602
O -5.2317989264 -0.2412657599 -0.7400801101
H -3.071004042 -0.3650166653 1.8135344954
H -3.2001641515 1.8231810521 0.9363617412
H -4.9218092806 -2.0011476744 0.4307945496
H -6.72967447 -0.7166180186 1.634512493
H -5.2990968045 -0.2756999229 2.6170351419
H -6.879845609 1.5121847966 0.8062824508
H -5.4410392877 1.9899675373 1.7594347682
H -5.1882671055 1.8753046369 -1.0483472356
O 2.6687867969 -1.473720375 -1.7207779779
C 0.0201870683 1.458143942 1.6383208075
C 4.7747038585 1.382913389 0.0521977574
C 6.1370810248 1.1374916283 0.808971289
C 6.345762523 -0.4004966484 0.5445759511
C 5.1246265175 -0.7224514739 -0.4061102042
O 4.9069390041 0.5373498685 -1.1552128007
H 3.8374769809 0.7593566774 1.9803781726
H 3.8976055349 -1.4886173453 1.3364202309
H -0.4732563523 1.2019936431 0.6663517978
H 4.5559505364 2.4307879823 -0.2306183854
H 6.9417428188 1.7362963761 0.3530885414
H 6.0747816658 1.3843855973 1.8808156499
H 7.2996012178 -0.5998009663 0.0310953296
H 6.3123905383 -0.9972776731 1.4703036062
H 5.2773255138 -1.5640727222 -1.1087369401
H 0.05499932 2.5607682198 1.7519230906
H -0.5476045637 1.023103357 2.4805418599
H 0.6167960937 1.6746597142 -1.5639203817
H -0.8127214744 2.0740872568 -2.6485663516
H -0.1209880453 0.4009890258 -2.6473043869
H -1.131170013 -3.7956639099 -0.111688806
H -0.0736471063 -3.4380247393 1.3083255353
H 0.7980544389 -3.0725981113 -1.2641768521
H -0.0051198397 -1.475304438 -1.0711758335
$end

$rem
JOBTYPE                   OPT
METHOD                    B3LYP
DFT_D                     d3_op
BASIS                     STO-3G
GEOM_OPT_MAX_CYCLES       100
GEOM_OPT_TOL_GRADIENT     300
GEOM_OPT_TOL_DISPLACEMENT 1200
GEOM_OPT_TOL_ENERGY       100
SYMMETRY                  False
THRESH                    12
SCF_CONVERGENCE           8
MAX_SUB_FILE_NUM          128
MEM_STATIC                400
MEM_TOTAL                 4000
$end
