$molecule
0  1
O -3.94934 -3.66094 2.70899
C -3.26408 -4.56952 2.26188
C -3.36658 -6.02376 2.66595
C -2.1637 -6.92746 2.34928
C -0.92277 -6.23941 1.8251
O 0.14216 -6.52618 2.63079
C 0.51959 -7.90659 2.59519
C -0.71251 -8.79249 2.74764
O -1.56709 -8.64351 1.60292
C -2.70208 -9.38552 1.62204
C -3.83183 -8.71361 2.36559
C -4.66336 -7.73061 1.5286
C -4.48532 -7.82655 0.02667
O -5.26291 -7.38829 -0.8087
O -2.64557 -4.30066 1.08329
O -3.31237 -8.26998 -0.50313
O -2.72134 -10.52705 1.17985
C -3.00541 -8.33231 -1.84786
C -4.8604 -9.84504 2.67945
C -5.85429 -9.47548 3.77323
C -6.64994 -8.42024 3.05702
C -6.02246 -8.54009 1.65762
O -5.6602 -9.88479 1.54967
H -3.59067 -8.49249 3.35571
H -5.32375 -6.83518 1.57868
H -4.39143 -10.81522 2.96255
H -6.50398 -10.36986 3.9163
H -5.43636 -9.21081 4.76287
H -7.71741 -8.73538 3.05355
H -6.56593 -7.3874 3.45474
H -6.80736 -8.24723 0.9152
O -0.73397 -5.86715 0.67072
C -2.56977 -3.05602 0.49107
C -3.31491 -5.66406 4.24197
C -3.8006 -6.73277 5.22532
C -2.59998 -7.57143 5.20335
C -1.81706 -6.83922 4.0839
O -1.98503 -5.53162 4.45781
H -4.39639 -6.11314 2.99632
H -2.61046 -6.85236 1.33716
H -2.04454 -2.34513 1.16414
H -3.8922 -4.77772 4.61316
H -3.94933 -6.33994 6.25836
H -4.745 -7.17366 4.87822
H -2.05666 -7.36163 6.15999
H -2.74495 -8.67223 5.23739
H -0.81113 -7.10812 4.46191
H -3.58836 -2.67638 0.26202
H -1.99915 -3.13918 -0.45647
H -1.98034 -8.73911 -1.96667
H -3.04045 -7.31648 -2.29611
H -3.71985 -9.0022 -2.37208
H -0.27059 -9.80787 2.63521
H -1.19642 -9.04269 3.70276
H 1.26814 -8.11634 3.38821
H 0.99128 -8.11951 1.6091
$end

$opt
CONSTRAINT
tors           1           2           3           4    -161.053
tors           3           4           5           6    +123.158
tors           4           5           6           7     +66.316
tors           5           6           7           8     -47.368
tors           6           7           8           9     +66.316
tors           7           8           9          10    -180.000
tors           8           9          10          11     +85.263
tors           9          10          11          12     +85.263
tors          11          12          13          14    +161.053
ENDCONSTRAINT
$end

$rem
JOBTYPE                   OPT
METHOD                    B3LYP
DFT_D                     d3_op
BASIS                     STO-3G
GEOM_OPT_MAX_CYCLES       100
GEOM_OPT_TOL_GRADIENT     300
GEOM_OPT_TOL_DISPLACEMENT 1200
GEOM_OPT_TOL_ENERGY       100
SYMMETRY                  False
THRESH                    12
SCF_CONVERGENCE           8
MAX_SUB_FILE_NUM          128
MEM_STATIC                400
MEM_TOTAL                 4000
$end
