$molecule
0  1
O 3.8533639334 -2.782360636 0.2603928542
C 3.5120250735 -1.7687623371 -0.382697954
C 4.3946239416 -0.5203062851 -0.7571217108
C 3.8796924061 0.8420617871 -0.1434620935
C 2.8023604756 0.6217344551 0.9769380394
O 2.2896900963 1.8826537443 1.4639118796
C 0.8173001837 1.9842996868 1.2589689533
C 0.1634346216 0.8917713167 0.3275793845
O -1.074530788 1.4548736638 -0.2641492802
C -2.1838764056 0.5793962569 -0.0010603057
C -3.3964163869 1.0486162553 -0.8777926792
C -4.5779672731 -0.0017830721 -0.9261708691
C -4.1525520421 -1.4841617166 -0.6173638873
O -3.1257818753 -2.0679989575 -1.026679512
O 2.238650857 -1.5966186042 -1.0318877586
O -5.1571538595 -2.1055680973 0.1898932546
O -2.158087252 -0.3494207286 0.8349534372
C -4.7697245474 -3.5036261358 0.48776602
C -4.1170585549 2.2266356245 -0.0842479433
C -5.2811487967 2.8363594232 -0.9645897306
C -6.4129445629 1.7587310849 -0.7723564476
C -5.6362900383 0.6641321614 0.0561179901
O -4.8195253072 1.4788745001 0.9851941477
H -3.0411383523 1.3533827659 -1.8775468333
H -4.9943908665 -0.0158066988 -1.9517448958
H -3.4197726851 2.9685149257 0.3517235883
H -5.5849615573 3.8214512886 -0.5766287587
H -4.9801030559 2.9508603043 -2.0184297221
H -7.2525446231 2.1598456316 -0.182300293
H -6.8028732556 1.3699630686 -1.7265693686
H -6.259988806 -0.0611958444 0.612388614
O 2.4442431938 -0.486690795 1.4334434836
C 1.3222339668 -2.6918436543 -0.6444994508
C 5.8651221837 -0.5910978952 -0.1701528085
C 6.7762467587 0.3516971639 -1.0467188751
C 6.2528138812 1.7677721295 -0.5996079222
C 5.2182604962 1.3755453725 0.5297947245
O 5.7781618953 0.1376263063 1.1189016601
H 4.4134181094 -0.4489543449 -1.8600127772
H 3.4766485776 1.5374726473 -0.9010890502
H 1.1162088622 -2.6734904241 0.4454889592
H 6.2393424596 -1.6205996071 -0.007509956
H 7.8370700025 0.2146941675 -0.7828128018
H 6.6532007829 0.1704925571 -2.126449011
H 7.0624895921 2.3870707786 -0.1822055523
H 5.773418183 2.3226156102 -1.4222543341
H 5.0561333123 2.144912646 1.3096806866
H 1.7347760821 -3.6866724001 -0.9095132966
H 0.380929155 -2.5201447702 -1.1993486309
H -5.568992196 -3.9100266574 1.1344932467
H -3.7985998122 -3.5501251333 1.0212504319
H -4.6940256676 -4.1128887603 -0.4362499366
H 0.8438467531 0.6254237695 -0.5108800412
H -0.0901923922 -0.0252421063 0.8998567418
H 0.6429984981 2.9840057986 0.8026212748
H 0.3066657251 1.9703531949 2.2479387858
$end

$rem
JOBTYPE                   OPT
METHOD                    B3LYP
DFT_D                     d3_op
BASIS                     STO-3G
GEOM_OPT_MAX_CYCLES       100
GEOM_OPT_TOL_GRADIENT     300
GEOM_OPT_TOL_DISPLACEMENT 1200
GEOM_OPT_TOL_ENERGY       100
SYMMETRY                  False
THRESH                    12
SCF_CONVERGENCE           8
MAX_SUB_FILE_NUM          128
MEM_STATIC                400
MEM_TOTAL                 4000
$end
