$molecule
0  1
O 2.9923871708 -2.2172041351 0.0388984471
C 3.9795188412 -1.5400956347 0.4039150264
C 4.8751519743 -0.6340123978 -0.515359319
C 4.2519817079 0.8197469842 -0.7089673304
C 2.9093739596 1.016565585 0.0695665134
O 1.8485498408 1.0849690136 -0.8931480771
C 0.5403478344 1.2720946092 -0.2187595984
C -0.4901027839 0.2428499593 -0.8161915929
O -1.8252003217 0.8723010703 -0.9346929102
C -2.7135078526 0.3611349153 0.0756616161
C -4.1229175848 1.0160543708 -0.1589408173
C -5.2695647239 0.0278974205 -0.6326069545
C -4.8654079579 -1.3875798478 -1.1767915372
O -5.6618315075 -2.2627802144 -1.5819307075
O 4.4380818815 -1.4579738984 1.7534090074
O -3.4455472239 -1.5116012021 -1.2695367558
O -2.3555611323 -0.3725564839 1.0211369907
C -3.070538791 -2.8410504552 -1.8007412446
C -4.7108835286 1.4601507074 1.2510737987
C -5.9918628539 2.3600850988 1.0307995063
C -7.0759663065 1.2738792943 0.6811131159
C -6.1913185593 -0.0322794912 0.6658945875
O -5.2498018026 0.1871493536 1.7853184025
H -4.0045854931 1.8577130196 -0.8630375981
H -5.8371497437 0.5033753804 -1.4547671587
H -3.9562018834 1.8773556502 1.9454783914
H -6.2446798344 2.9064202004 1.9530813052
H -5.8455074112 3.0890149601 0.2176586521
H -7.8449290583 1.2055649351 1.4674506599
H -7.5725720876 1.4571702668 -0.2849783721
H -6.7425234598 -0.9844623219 0.7927348525
O 2.7421097823 1.0865001247 1.30736001
C 3.5336989975 -2.2246546906 2.6414670256
C 6.2818275698 -0.2698959737 0.1191490599
C 7.2022409507 0.3266496869 -1.0188075274
C 6.5834841835 1.7634998293 -1.1918259833
C 5.4203107065 1.7227748278 -0.123680984
O 5.9819342382 0.9033811948 0.9724641917
H 4.9778952698 -1.1403386865 -1.4917726653
H 4.0617477529 1.0300356166 -1.7759395346
H 3.4656116807 -3.2890635918 2.3367536405
H 6.7364095162 -1.0797884868 0.7207998883
H 8.2488466927 0.3762066362 -0.67877579
H 7.1595133542 -0.2695244266 -1.9444243086
H 7.3114439843 2.5504881319 -0.9382129583
H 6.2060945091 1.9462964532 -2.2107029469
H 5.0910144809 2.7080059594 0.2593969086
H 2.5127235752 -1.7912433292 2.6466929884
H 3.9704617932 -2.1532482549 3.6543049068
H -1.9674329635 -2.8376988565 -1.8738078345
H -3.5131344929 -3.0166329337 -2.8024196399
H -3.3956502852 -3.655056803 -1.1212547578
H -0.1663792779 -0.0367823911 -1.8410062067
H -0.555545985 -0.6629230373 -0.1779124049
H 0.1807357938 2.3037622822 -0.4266726946
H 0.6759146089 1.1485304056 0.8769961677
$end

$rem
JOBTYPE                   OPT
METHOD                    B3LYP
DFT_D                     d3_op
BASIS                     STO-3G
GEOM_OPT_MAX_CYCLES       100
GEOM_OPT_TOL_GRADIENT     300
GEOM_OPT_TOL_DISPLACEMENT 1200
GEOM_OPT_TOL_ENERGY       100
SYMMETRY                  False
THRESH                    12
SCF_CONVERGENCE           8
MAX_SUB_FILE_NUM          128
MEM_STATIC                400
MEM_TOTAL                 4000
$end
