$molecule
0  1
O -3.94934 -3.66094 2.70899
C -3.26408 -4.56952 2.26188
C -3.36658 -6.02376 2.66595
C -4.07582 -6.33571 3.99393
C -4.75932 -5.1751 4.68233
O -3.92143 -4.62838 5.6121
C -4.49992 -3.5196 6.30865
C -4.31954 -2.23898 5.50019
O -4.36342 -1.09904 6.37282
C -4.28756 0.1081 5.75946
C -4.09259 1.24946 6.72897
C -2.77983 1.20588 7.5246
C -1.71838 0.26166 6.9969
O -0.61249 0.09186 7.4896
O -2.43985 -4.3062 1.2141
O -1.83788 -0.27733 5.75279
O -4.35606 0.26004 4.54487
C -0.87547 -1.03241 5.10757
C -3.96038 2.64207 6.07213
C -4.3441 3.72344 7.08174
C -3.16725 3.65361 8.03438
C -2.28039 2.64087 7.3013
O -2.57441 2.84653 5.94002
H -4.98757 1.25583 7.39158
H -2.95394 0.93072 8.58784
H -4.56474 2.7574 5.1463
H -4.30445 4.69641 6.54093
H -5.34378 3.61065 7.55367
H -2.68418 4.65524 8.06948
H -3.40844 3.30818 9.06316
H -1.215 2.76862 7.59504
O -5.95449 -4.914 4.58479
C -2.25169 -3.0525 0.67085
C -4.21018 -6.82579 1.66595
C -3.86711 -8.31152 1.76645
C -4.52817 -8.66217 3.08174
C -5.1494 -7.31159 3.45174
O -5.50496 -6.76109 2.20622
H -2.31912 -6.39925 2.70286
H -3.44889 -6.87532 4.73991
H -1.84411 -2.36059 1.43897
H -4.09644 -6.47259 0.61739
H -4.40032 -8.84613 0.9482
H -2.77929 -8.53129 1.70709
H -5.34 -9.39658 2.88015
H -3.84937 -9.05874 3.86725
H -5.98367 -7.46966 4.17082
H -3.2131 -2.65575 0.28019
H -1.52784 -3.12369 -0.16665
H -1.25122 -1.32472 4.10551
H -0.65721 -1.9522 5.69124
H 0.05398 -0.43852 4.97603
H -3.32174 -2.26764 5.01764
H -5.10265 -2.19521 4.71128
H -3.86214 -3.39365 7.20992
H -5.53316 -3.68694 6.68793
$end

$opt
CONSTRAINT
tors           1           2           3           4     -18.466
tors           3           4           5           6     -94.927
tors           4           5           6           7    -180.000
tors           5           6           7           8     -84.164
tors           6           7           8           9    -155.847
tors           7           8           9          10    -176.520
tors           8           9          10          11    -169.826
tors           9          10          11          12     +63.244
tors          11          12          13          14    +179.800
ENDCONSTRAINT
$end

$rem
JOBTYPE                   OPT
METHOD                    B3LYP
DFT_D                     d3_op
BASIS                     STO-3G
GEOM_OPT_MAX_CYCLES       100
GEOM_OPT_TOL_GRADIENT     300
GEOM_OPT_TOL_DISPLACEMENT 1200
GEOM_OPT_TOL_ENERGY       100
SYMMETRY                  False
THRESH                    12
SCF_CONVERGENCE           8
MAX_SUB_FILE_NUM          128
MEM_STATIC                400
MEM_TOTAL                 4000
$end
