$molecule
0  1
O -3.94934 -3.66094 2.70899
C -3.26408 -4.56952 2.26188
C -3.36658 -6.02376 2.66595
C -4.05589 -6.33411 4.00475
C -4.72315 -5.17128 4.70525
O -3.77571 -4.35286 5.25111
C -4.33213 -3.22457 5.9342
C -4.32587 -2.00231 5.02197
O -4.78146 -0.84873 5.74623
C -5.02128 0.25439 4.99472
C -5.18055 1.50722 5.8228
C -3.93353 1.92036 6.61813
C -2.63613 1.25454 6.20564
O -1.52997 1.51881 6.65412
O -2.44358 -4.30665 1.21116
O -2.5673 0.50864 5.06979
O -5.07797 0.24575 3.77004
C -1.40463 0.02775 4.4917
C -5.41708 2.79614 5.00401
C -6.11639 3.8373 5.87727
C -4.9968 4.20783 6.82897
C -3.84266 3.40239 6.22165
O -4.13785 3.35979 4.84603
H -6.06413 1.34002 6.47954
H -4.05577 1.74102 7.70863
H -6.00017 2.63141 4.07199
H -6.33033 4.71369 5.22393
H -7.06015 3.50575 6.36121
H -4.80932 5.30103 6.74146
H -5.16606 3.93203 7.89251
H -2.86455 3.85571 6.49619
O -5.93668 -5.0258 4.81379
C -2.25778 -3.05285 0.66712
C -4.2346 -6.82486 1.68463
C -3.88213 -8.30893 1.76918
C -4.49331 -8.66632 3.10705
C -5.12689 -7.3254 3.49262
O -5.51703 -6.77457 2.25766
H -2.32182 -6.40867 2.67962
H -3.39242 -6.83502 4.74507
H -1.84805 -2.36064 1.43381
H -4.15101 -6.4671 0.6348
H -4.4472 -8.83814 0.96886
H -2.79825 -8.53186 1.66637
H -5.29176 -9.42264 2.93598
H -3.7797 -9.03771 3.8739
H -5.94092 -7.49629 4.23116
H -3.22069 -2.6564 0.27986
H -1.53674 -3.12373 -0.17281
H -1.65594 -0.52457 3.56318
H -0.88572 -0.66104 5.1921
H -0.73275 0.87075 4.2234
H -3.314 -1.84372 4.60687
H -5.04875 -2.21463 4.20625
H -3.6713 -3.00826 6.80022
H -5.34409 -3.39409 6.36774
$end

$opt
CONSTRAINT
tors           1           2           3           4     -19.418
tors           3           4           5           6     -73.762
tors           4           5           6           7    -180.000
tors           5           6           7           8     -97.219
tors           6           7           8           9    -175.254
tors           7           8           9          10    -170.064
tors           8           9          10          11    -166.564
tors           9          10          11          12     +63.244
tors          11          12          13          14    +174.688
ENDCONSTRAINT
$end

$rem
JOBTYPE                   OPT
METHOD                    B3LYP
DFT_D                     d3_op
BASIS                     STO-3G
GEOM_OPT_MAX_CYCLES       100
GEOM_OPT_TOL_GRADIENT     300
GEOM_OPT_TOL_DISPLACEMENT 1200
GEOM_OPT_TOL_ENERGY       100
SYMMETRY                  False
THRESH                    12
SCF_CONVERGENCE           8
MAX_SUB_FILE_NUM          128
MEM_STATIC                400
MEM_TOTAL                 4000
$end
