$molecule
0  1
O -2.3333339343 0.4328797807 1.217111202
C -3.1488365411 1.1564991918 0.6001730469
C -4.3150998659 0.677122705 -0.3283425344
C -4.236386423 -0.8723071881 -0.6454419929
C -2.9297596004 -1.5688957714 -0.1170745396
O -1.8533299996 -1.1553052123 -0.9769920082
C -0.579815907 -1.7739395379 -0.5411102787
C 0.3388631103 -0.6237411607 -0.0076858076
O 1.6933427382 -1.1805402457 0.2141555738
C 2.5082159504 -0.228591862 0.9182967718
C 4.008257012 -0.6505642538 0.7231248893
C 4.5740923447 -0.6313662094 -0.7559792133
C 3.8032177657 0.2257307472 -1.8257809735
O 4.1613382506 0.3931984405 -3.0123594154
O -3.1531533844 2.581656341 0.6582876795
O 2.7101639923 0.9311593498 -1.2339608321
O 2.0708959278 0.7226509177 1.5990189283
C 2.0885248272 1.8404425821 -2.2233913223
C 5.0364161801 0.2989458932 1.471565272
C 6.3084378995 -0.5645889251 1.820093577
C 6.909692616 -0.785604639 0.3811730514
C 5.9567432988 0.1189157317 -0.4989513351
O 5.5401987612 1.2079782454 0.4145070469
H 4.0955394926 -1.6820350179 1.1128641372
H 4.7173864103 -1.6505332493 -1.1577393095
H 4.5904373031 0.8782385873 2.303499002
H 6.9986872389 0.0086301664 2.4597659774
H 6.0537182711 -1.508096972 2.3282826839
H 7.9500093616 -0.4298851755 0.313974722
H 6.87732532 -1.8409878959 0.0660858443
H 6.4164801427 0.5317317354 -1.418254851
O -2.8363439548 -2.4379505115 0.7755621733
C -2.0692176245 3.0532496542 1.5541659339
C -5.7026082434 0.7442502731 0.4494185244
C -6.8753697873 0.5091794185 -0.5834414414
C -6.7853213506 -1.0467696971 -0.8037093556
C -5.5357930947 -1.4037155243 0.0915722454
O -5.6817285903 -0.4966584696 1.2550577133
H -4.3279168858 1.2973120383 -1.2421475979
H -4.2914846515 -1.0429708836 -1.7356095988
H -1.0763749313 2.688302306 1.2205323404
H -5.8172412224 1.6334944813 1.0995992167
H -7.8409792465 0.8006741306 -0.1406200287
H -6.7272285873 1.0804065991 -1.5139432719
H -7.686111396 -1.5587949274 -0.4293094996
H -6.6351096492 -1.3211190674 -1.8601487659
H -5.4650004997 -2.4555248909 0.43047576
H -2.2333977748 2.7197218615 2.5991112186
H -2.0958736178 4.1573452835 1.5086984734
H 1.304624875 2.3948231902 -1.675265178
H 1.6299011051 1.2778878333 -3.0624315319
H 2.8293116457 2.5534704554 -2.6385033513
H 0.3901000868 0.1889775021 -0.763640672
H -0.0961960208 -0.1998197169 0.9242673366
H -0.1134021521 -2.267734138 -1.4192826019
H -0.7888427427 -2.5234800424 0.251830985
$end

$rem
JOBTYPE                   OPT
METHOD                    B3LYP
DFT_D                     d3_op
BASIS                     STO-3G
GEOM_OPT_MAX_CYCLES       100
GEOM_OPT_TOL_GRADIENT     300
GEOM_OPT_TOL_DISPLACEMENT 1200
GEOM_OPT_TOL_ENERGY       100
SYMMETRY                  False
THRESH                    12
SCF_CONVERGENCE           8
MAX_SUB_FILE_NUM          128
MEM_STATIC                400
MEM_TOTAL                 4000
$end
