$molecule
0  1
O -2.2251821895 0.6304111157 1.0803101745
C -3.1339714867 1.2764123087 0.510647426
C -4.2640430827 0.6992393397 -0.4086685621
C -4.2207261347 -0.8798763241 -0.4986462
C -2.9219240829 -1.5384446631 0.0967033529
O -1.8736601103 -1.358196246 -0.8748589021
C -0.5826662549 -1.8484911381 -0.3376426866
C 0.2787613961 -0.6167916735 0.104691451
O 1.656722943 -1.1012611965 0.3559286627
C 2.4700677198 -0.0170260314 0.827227322
C 3.9623347339 -0.5065278083 0.838811248
C 4.6302949359 -0.7963969724 -0.5690218833
C 3.9011238688 -0.2709309868 -1.858922134
O 4.3138912893 -0.4145104075 -3.0309432015
O -3.2863949015 2.6905070372 0.6081701369
O 2.766002024 0.5288481033 -1.5224528351
O 2.0311759947 1.0833381024 1.2232421291
C 2.1401485338 1.0817372825 -2.7441413257
C 4.951437269 0.5781800059 1.4401269532
C 6.2110762221 -0.1824141532 2.0069296988
C 6.9040361732 -0.637906784 0.6688173684
C 5.9747459245 0.046028798 -0.4121878619
O 5.4927473018 1.2787938743 0.251400569
H 3.9930041506 -1.4320679507 1.4426624151
H 4.8364463786 -1.8729715994 -0.7085016251
H 4.4632718158 1.2980032717 2.1256233692
H 6.8533600622 0.5071934378 2.5778520032
H 5.9340568838 -1.0288257798 2.6555026508
H 7.9333472754 -0.2535257289 0.590962943
H 6.9265273138 -1.7335601969 0.5549711684
H 6.4686033505 0.2841554474 -1.3745864278
O -2.8187802679 -2.2238154478 1.135989131
C -2.2232808651 3.2544156878 1.4751612028
C -5.6772353439 0.9082622158 0.2900585908
C -6.8216540535 0.5186803015 -0.7288752377
C -6.7652116544 -1.0534813115 -0.6700508748
C -5.536396136 -1.2711698726 0.2959403692
O -5.6977411075 -0.1832491038 1.2900468085
H -4.2105056323 1.1824416193 -1.4009233334
H -4.289512205 -1.194925027 -1.5555303794
H -1.2133861146 3.0562015293 1.0612010044
H -5.7935485377 1.8941426382 0.7808300343
H -7.7939783137 0.905135296 -0.3846241234
H -6.6232262948 0.9119297672 -1.7388577522
H -7.6818308909 -1.4727736101 -0.2252781123
H -6.607998861 -1.5130078595 -1.6590186238
H -5.4853234153 -2.2537034316 0.803904984
H -2.2719260507 2.8358753833 2.5009328427
H -2.4049815407 4.3442088472 1.5083552311
H 1.3605811671 1.7838523232 -2.3952994066
H 1.6733054078 0.2829138761 -3.3564766
H 2.8787051413 1.6221332182 -3.3700779543
H 0.2864184396 0.1405229142 -0.7091536184
H -0.1715580053 -0.1421860961 1.0034249005
H -0.0692163867 -2.4003458374 -1.152094524
H -0.7712912448 -2.5271974563 0.5212638614
$end

$rem
JOBTYPE                   OPT
METHOD                    B3LYP
DFT_D                     d3_op
BASIS                     STO-3G
GEOM_OPT_MAX_CYCLES       100
GEOM_OPT_TOL_GRADIENT     300
GEOM_OPT_TOL_DISPLACEMENT 1200
GEOM_OPT_TOL_ENERGY       100
SYMMETRY                  False
THRESH                    12
SCF_CONVERGENCE           8
MAX_SUB_FILE_NUM          128
MEM_STATIC                400
MEM_TOTAL                 4000
$end
