$molecule
0  1
O -2.2454597009 0.842219013 0.9698219495
C -3.0841240497 1.3111586884 0.1665086297
C -4.2536560964 0.5390437186 -0.5282038409
C -4.1467324607 -1.0315677093 -0.3462369413
C -2.9021826001 -1.4921385875 0.5018453547
O -1.8003742796 -1.6358499043 -0.4151710377
C -0.5528267671 -1.9456044974 0.3217400189
C 0.2885347683 -0.625876245 0.4240285933
O 1.6997541779 -0.9904795066 0.6905673985
C 2.4665762867 0.2043202852 0.9030055387
C 3.9854741526 -0.1888923994 0.9318764779
C 4.5698484613 -0.8886197193 -0.3627655562
C 3.7759715107 -0.7045253126 -1.7097988681
O 4.1482933422 -1.1184901798 -2.8299168124
O -3.1060730856 2.673445135 -0.2550914728
O 2.6479510846 0.1546282381 -1.530789206
O 1.9784228529 1.3401736941 1.0824127267
C 1.9744836371 0.4040250097 -2.8246241574
C 4.9547694229 1.0574747662 1.0862261946
C 6.2593710102 0.5523147069 1.8128349074
C 6.8926299766 -0.3396298096 0.6794473946
C 5.9154339555 -0.0511031165 -0.5297862101
O 5.4344665851 1.3300220559 -0.2896487409
H 4.1189033441 -0.8749136996 1.7889499651
H 4.7563339094 -1.9662571378 -0.2058123227
H 4.4670213445 1.9550234592 1.5143935023
H 6.9121174936 1.4030664694 2.0665094826
H 6.0390776996 -0.0141215164 2.7317685699
H 7.9176794594 -0.0210545287 0.4326014112
H 6.910463474 -1.4093387778 0.9432661806
H 6.3715507133 -0.1379423842 -1.5354413545
O -2.8814439288 -1.8492353438 1.6986433035
C -2.0095535015 3.4229387347 0.4059760004
C -5.6500484934 0.8302969495 0.179360674
C -6.8005474152 0.3363942746 -0.783329088
C -6.6962066981 -1.2238018592 -0.604917972
C -5.5010115905 -1.3351069428 0.4205645767
O -5.6766388043 -0.1463449024 1.2896250398
H -4.2805383652 0.8309619825 -1.59332018
H -4.0987405985 -1.5368581681 -1.3271476363
H -1.0237567617 2.9477476665 0.2252774823
H -5.762096897 1.8640379656 0.560437273
H -7.7762440987 0.7192267382 -0.4438975794
H -6.6376782026 0.6592103567 -1.8241505724
H -7.6173932717 -1.6431271231 -0.170175841
H -6.4816406177 -1.7465011432 -1.5508080606
H -5.4777668832 -2.2570015013 1.0330625105
H -2.1707355665 3.4924220071 1.5011512756
H -2.024310531 4.4361564207 -0.0355984729
H 1.2078567517 1.1749317107 -2.6238398979
H 1.4853034879 -0.5143438905 -3.2098429583
H 2.6873801648 0.7730251815 -3.5895217654
H 0.2206269829 -0.0807248146 -0.5428500235
H -0.129906464 0.036241077 1.212135798
H 0.0023251524 -2.7061879651 -0.2653709246
H -0.7997167202 -2.3447154278 1.3281217646
$end

$rem
JOBTYPE                   OPT
METHOD                    B3LYP
DFT_D                     d3_op
BASIS                     STO-3G
GEOM_OPT_MAX_CYCLES       100
GEOM_OPT_TOL_GRADIENT     300
GEOM_OPT_TOL_DISPLACEMENT 1200
GEOM_OPT_TOL_ENERGY       100
SYMMETRY                  False
THRESH                    12
SCF_CONVERGENCE           8
MAX_SUB_FILE_NUM          128
MEM_STATIC                400
MEM_TOTAL                 4000
$end
