$molecule
0  1
O 4.2486696258 -1.0270102222 1.2616725735
C 4.8505056932 -0.2034157665 0.5377159162
C 4.2292122861 0.691473362 -0.5920280401
C 2.7243536572 0.2873479332 -0.9245171066
C 2.5354322152 -1.2788902139 -0.5967774606
O 1.5844664177 -1.8810192794 0.2924820925
C 0.2926750318 -1.2176619281 0.5366219422
C -0.8099877061 -2.0046640385 -0.2755670968
O -2.2345852647 -1.8203882085 0.1234507966
C -2.4605854235 -1.1103410191 1.3386143492
C -3.7192145975 -0.1752615472 1.2301328226
C -3.8792326316 0.7627515994 -0.045157591
C -2.881223085 0.5568153624 -1.2359277918
O -2.7564437626 -0.4202658638 -2.0034502417
O 6.2408572688 0.1046604383 0.6503097469
O -2.0668849816 1.738927385 -1.3331285527
O -1.7683028471 -1.2138636539 2.380504687
C -1.1240859614 1.6025383818 -2.4667433224
C -5.0872776244 -0.9995254875 1.1689433652
C -6.2409748506 -0.0697059247 1.711869867
C -6.3972266966 0.9389909949 0.5137155803
C -5.3474670628 0.3572776036 -0.515526948
O -5.379715267 -1.1014825096 -0.275663017
H -3.6957084146 0.4462861867 2.1431221895
H -3.8213775063 1.8242801877 0.2537384797
H -5.0358751396 -2.006210191 1.6271492962
H -7.161414589 -0.6547003587 1.8691802858
H -5.9702038551 0.4256785489 2.6577643357
H -7.4124139171 0.9094560708 0.0871031735
H -6.1632654459 1.9772137855 0.7986692011
H -5.5594861349 0.5773106962 -1.5797841117
O 3.306958425 -2.0763229055 -1.179798461
C 6.8466823488 -0.6961762479 1.7404058671
C 4.0425875399 2.1505476588 -0.0011606139
C 3.6051250848 3.1318723451 -1.1550148956
C 2.0979779247 2.7282282267 -1.3372429006
C 1.9648997945 1.5469410818 -0.2897584056
O 2.8231635055 1.996067306 0.8274571399
H 4.8826069056 0.6756174114 -1.4821564824
H 2.5874457704 0.3290187942 -2.0212455507
H 6.7457749441 -1.7840433003 1.549443356
H 4.8934792734 2.4972526382 0.6166739801
H 3.7105029809 4.1803613484 -0.8343975193
H 4.2002054022 2.9803836126 -2.069823423
H 1.4225627561 3.5535402021 -1.0607641359
H 1.8652189749 2.4077221441 -2.364715857
H 0.9322123587 1.398553762 0.0687635523
H 6.3818358534 -0.4662395947 2.7208970326
H 7.9168723369 -0.420201762 1.7629731994
H -0.6210334274 2.5809613386 -2.5674752827
H -1.6501058331 1.3528873311 -3.4103029714
H -0.3652992811 0.8165770833 -2.2729491382
H -0.7800257519 -1.7133006373 -1.3475821802
H -0.5680344878 -3.088619077 -0.2063879691
H 0.2713244311 -0.1532521735 0.2569806395
H 0.0570349761 -1.3077358165 1.6190673868
$end

$rem
JOBTYPE                   OPT
METHOD                    B3LYP
DFT_D                     d3_op
BASIS                     STO-3G
GEOM_OPT_MAX_CYCLES       100
GEOM_OPT_TOL_GRADIENT     300
GEOM_OPT_TOL_DISPLACEMENT 1200
GEOM_OPT_TOL_ENERGY       100
SYMMETRY                  False
THRESH                    12
SCF_CONVERGENCE           8
MAX_SUB_FILE_NUM          128
MEM_STATIC                400
MEM_TOTAL                 4000
$end
