$molecule
0  1
O -1.4724542361 -1.9186050465 0.7101465866
C -2.5807849262 -1.3773660432 0.4973768433
C -3.0629780567 0.0156749396 1.0338830619
C -3.8077994512 0.8781858539 -0.0599093425
C -3.6947992689 0.3554058315 -1.5488139158
O -2.481650415 -0.3674303355 -1.9267335547
C -1.3439199656 0.5635298554 -2.1431454346
C -0.324040899 0.6355780447 -0.9387592884
O 0.9045967587 -0.0989016991 -1.3255985624
C 2.0744928358 0.5718922344 -0.8220413964
C 3.204164725 -0.5211304967 -0.7750399314
C 4.6346838473 -0.0482314222 -0.3053124799
C 5.0081239828 1.4619211658 -0.516203434
O 4.4285215287 2.3379357405 -1.1900188647
O -3.6717694538 -1.9970574154 -0.189027572
O 6.2174202721 1.6994138026 0.2214313276
O 2.0628496373 1.7300742062 -0.3562837553
C 6.6373202726 3.1093595014 0.0583410114
C 2.8137700321 -1.45560058 0.4577857827
C 3.7688287856 -2.7136755582 0.5169894711
C 5.0652002582 -2.0912978089 1.157562423
C 4.6618381468 -0.5667456611 1.2037532507
O 3.2387748678 -0.6200578835 1.6065875743
H 3.2302030999 -1.0710868731 -1.7322209777
H 5.3928429719 -0.6139979829 -0.8801631099
H 1.7308483393 -1.6827404248 0.515178528
H 3.3337019728 -3.4979586872 1.1561957939
H 3.9507576884 -3.1361170206 -0.4843110897
H 5.2329457544 -2.4744631285 2.1770039264
H 5.9712322405 -2.2699434447 0.5565979365
H 5.2487337609 0.0681091164 1.8951460592
O -4.6405353202 0.4251883112 -2.3605579083
C -3.2353541455 -3.2824465134 -0.7788310031
C -4.2515571808 -0.1931074939 2.0748257332
C -4.572488355 1.1878779965 2.7748462549
C -5.3937071448 1.9218631936 1.649356799
C -5.3004118744 0.8668929289 0.4803167303
O -5.4172627995 -0.4261155453 1.1930056684
H -2.2050807878 0.5431048961 1.4840323582
H -3.4116051108 1.9122420795 -0.0506478651
H -2.7871145897 -3.9512521044 -0.0163128194
H -4.1081718783 -1.0479008747 2.7640440882
H -5.1769721984 1.0296119287 3.6820284809
H -3.6551988345 1.7313106195 3.0530762946
H -6.4438349223 2.0682774452 1.9488934631
H -4.9657760613 2.8984726768 1.3725713965
H -6.0656323204 0.9482300188 -0.3164611251
H -2.4948233078 -3.1134143921 -1.5873652187
H -4.1442790065 -3.7495549231 -1.2001064953
H 7.5663984526 3.2220229629 0.646977636
H 5.868244144 3.8114944404 0.4405392134
H 6.8395705223 3.3566101662 -1.0040025243
H -0.0564595456 1.6848928466 -0.6893885617
H -0.7429032212 0.1369050944 -0.0426777401
H -1.6981803846 1.5840453364 -2.4000393401
H -0.7899340314 0.1656827569 -3.0211730875
$end

$rem
JOBTYPE                   OPT
METHOD                    B3LYP
DFT_D                     d3_op
BASIS                     STO-3G
GEOM_OPT_MAX_CYCLES       100
GEOM_OPT_TOL_GRADIENT     300
GEOM_OPT_TOL_DISPLACEMENT 1200
GEOM_OPT_TOL_ENERGY       100
SYMMETRY                  False
THRESH                    12
SCF_CONVERGENCE           8
MAX_SUB_FILE_NUM          128
MEM_STATIC                400
MEM_TOTAL                 4000
$end
