$molecule
0  1
O -3.94934 -3.66094 2.70899
C -3.26408 -4.56952 2.26188
C -3.36658 -6.02376 2.66595
C -3.34955 -7.06911 1.53865
C -3.0534 -6.5555 0.14704
O -4.21719 -6.41936 -0.55474
C -4.01706 -6.35929 -1.97093
C -4.62794 -7.58587 -2.64059
O -3.94242 -8.77173 -2.20852
C -4.72061 -9.87161 -2.05422
C -3.92222 -11.15122 -1.97776
C -4.75496 -12.42111 -1.74929
C -6.24575 -12.28507 -1.9854
O -6.90339 -12.95498 -2.76852
O -2.22176 -4.23961 1.45228
O -6.93036 -11.67555 -0.97532
O -5.93582 -9.77314 -2.05301
C -8.3059 -11.59548 -0.89574
C -3.18102 -11.50856 -3.27795
C -1.98792 -12.40342 -2.95094
C -2.6962 -13.68235 -2.55114
C -4.14965 -13.30231 -2.86395
O -4.04424 -12.40002 -3.93944
H -3.18953 -11.00918 -1.15057
H -4.61489 -12.85899 -0.73617
H -2.85248 -10.62031 -3.86038
H -1.44654 -12.58037 -3.90809
H -1.27634 -12.00081 -2.19826
H -2.34491 -14.49976 -3.21925
H -2.57646 -13.97971 -1.48677
H -4.74811 -14.22032 -3.05368
O -1.9253 -6.53165 -0.33648
C -1.94018 -2.9602 1.02149
C -2.12176 -6.45761 3.46669
C -2.45101 -7.67762 4.3258
C -2.54744 -8.74989 3.26264
C -2.16739 -7.93976 2.01857
O -1.25124 -6.9893 2.50075
H -4.26151 -6.11532 3.322
H -4.27548 -7.68729 1.49845
H -1.73736 -2.29885 1.89077
H -1.70789 -5.64361 4.10222
H -1.56019 -7.88759 4.9603
H -3.34666 -7.56818 4.97444
H -1.77165 -9.52038 3.46995
H -3.54339 -9.23277 3.16123
H -1.79286 -8.62108 1.22234
H -2.79334 -2.55913 0.43364
H -1.04023 -2.98515 0.37352
H -8.58501 -11.04051 0.02323
H -8.74763 -12.61361 -0.8462
H -8.70828 -11.05319 -1.77795
H -5.71707 -7.56107 -2.41649
H -4.49779 -7.48211 -3.73944
H -2.96189 -6.28874 -2.31552
H -4.52168 -5.44609 -2.35225
$end

$opt
CONSTRAINT
tors           1           2           3           4    +135.242
tors           3           4           5           6    -100.129
tors           4           5           6           7    -161.107
tors           5           6           7           8    +114.009
tors           6           7           8           9     -64.284
tors           7           8           9          10    +143.876
tors           8           9          10          11    +164.085
tors           9          10          11          12    +177.780
tors          11          12          13          14    +122.758
ENDCONSTRAINT
$end

$rem
JOBTYPE                   OPT
METHOD                    B3LYP
DFT_D                     d3_op
BASIS                     STO-3G
GEOM_OPT_MAX_CYCLES       100
GEOM_OPT_TOL_GRADIENT     300
GEOM_OPT_TOL_DISPLACEMENT 1200
GEOM_OPT_TOL_ENERGY       100
SYMMETRY                  False
THRESH                    12
SCF_CONVERGENCE           8
MAX_SUB_FILE_NUM          128
MEM_STATIC                400
MEM_TOTAL                 4000
$end
