$molecule
0  1
O 4.4992917523 -1.2747196289 -1.0167416202
C 4.5557694682 -0.2354027815 -0.3226529922
C 3.599844614 1.0063112574 -0.43508346
C 2.0799064134 0.6016398969 -0.6433778722
C 1.8277154774 -0.924270643 -0.4023345748
O 1.1413948381 -1.4741097703 -1.5383777432
C 0.822529791 -2.8999946253 -1.279443148
C -0.7315174629 -3.0814882401 -1.2792765377
O -1.2637227233 -2.4176456779 -0.0613016678
C -1.9934276046 -1.2418863978 -0.4138667239
C -2.6319036621 -0.6452559394 0.8826761423
C -3.2723264972 0.7790575861 0.6348018537
C -2.9539581187 1.4077658384 -0.771551745
O -3.7862712852 1.804902807 -1.6142303078
O 5.5522258333 0.0054074355 0.672955597
O -1.5378148879 1.6398736901 -0.8727049454
O -2.1701988017 -0.8439171918 -1.5887012488
C -1.2325209983 2.1328728997 -2.2344704436
C -3.9314727097 -1.4834315787 1.2596185783
C -4.4403953443 -1.0248540906 2.6838959569
C -5.1358102011 0.3445548397 2.33658535
C -4.8163199405 0.4589833868 0.7972546752
O -4.9408495248 -0.9408045332 0.3230792487
H -1.8851602155 -0.6446915176 1.69674148
H -2.9271610098 1.4910975809 1.4069328609
H -3.8191197073 -2.5773141751 1.1272674373
H -5.1582046769 -1.7548107116 3.0904870878
H -3.6100745549 -0.9100169725 3.399046956
H -6.2242704397 0.2941949234 2.4992012429
H -4.7296617438 1.1895846588 2.9149222522
H -5.4749691517 1.1260931219 0.2075550693
O 2.1108507616 -1.5783286915 0.6263765966
C 6.4533293982 -1.165792432 0.7767920875
C 3.5052223093 1.8883985188 0.8842801835
C 2.9773700998 3.3159206165 0.4726522741
C 1.4764853537 2.9881485929 0.1358284676
C 1.3967052364 1.453505516 0.5097956596
O 2.359918741 1.3081285492 1.6253982907
H 3.9531068334 1.6166794222 -1.287333255
H 1.7082385025 0.8692122325 -1.6474672078
H 7.0005480304 -1.3450838721 -0.1713907333
H 4.4218344586 1.8676576433 1.504045889
H 3.0575453618 4.0142205615 1.3209996453
H 3.5265254799 3.7363396607 -0.3849722764
H 0.7789590698 3.5707733154 0.7577329766
H 1.2341184842 3.1670054042 -0.92257922
H 0.3869491343 1.0998375502 0.7965019248
H 5.8927526841 -2.0856740402 1.0402588913
H 7.1731959491 -0.9254217293 1.5806109565
H -0.1346192697 2.2386487281 -2.2884630605
H -1.7099282125 3.114324133 -2.4329921088
H -1.5705765295 1.410475003 -3.0049809893
H -1.1861610699 -2.6124886099 -2.1784336367
H -0.9956585457 -4.1581213524 -1.223000229
H 1.2531462904 -3.1794734943 -0.2926583925
H 1.2794713803 -3.5130776884 -2.0850150602
$end

$rem
JOBTYPE                   OPT
METHOD                    B3LYP
DFT_D                     d3_op
BASIS                     STO-3G
GEOM_OPT_MAX_CYCLES       100
GEOM_OPT_TOL_GRADIENT     300
GEOM_OPT_TOL_DISPLACEMENT 1200
GEOM_OPT_TOL_ENERGY       100
SYMMETRY                  False
THRESH                    12
SCF_CONVERGENCE           8
MAX_SUB_FILE_NUM          128
MEM_STATIC                400
MEM_TOTAL                 4000
$end
