$molecule
0  1
O -3.94934 -3.66094 2.70899
C -3.26408 -4.56952 2.26188
C -3.36658 -6.02376 2.66595
C -4.77852 -6.60633 2.8417
C -5.93061 -5.72067 2.42172
O -6.82598 -5.60682 3.44679
C -7.9619 -4.80113 3.11541
C -9.23064 -5.6473 3.1365
O -9.27155 -6.49693 1.9792
C -8.93594 -7.79302 2.19519
C -9.03905 -8.64269 0.95096
C -8.52704 -10.08218 1.10586
C -8.32897 -10.56351 2.52916
O -8.88797 -11.52514 3.03646
O -2.43716 -4.27912 1.22112
O -7.20301 -10.11308 3.15333
O -8.60619 -8.16837 3.30774
C -6.79097 -10.53441 4.40266
C -10.47861 -8.88252 0.46802
C -10.46602 -9.1934 -1.02683
C -9.83052 -10.56959 -1.02347
C -9.73153 -10.82473 0.48641
O -10.82934 -10.1257 1.02414
H -8.45465 -8.11069 0.1655
H -7.57956 -10.2726 0.55462
H -11.16534 -8.03543 0.68478
H -11.52892 -9.29267 -1.34443
H -9.96155 -8.44041 -1.66984
H -10.53832 -11.28236 -1.50195
H -8.83375 -10.63458 -1.5112
H -9.7047 -11.9188 0.6844
O -6.05061 -5.24271 1.2986
C -2.26735 -3.02015 0.68358
C -2.79336 -7.00416 1.61715
C -2.44447 -8.34049 2.27144
C -3.82476 -8.91754 2.48668
C -4.69143 -7.80943 1.88371
O -3.9071 -7.32441 0.82017
H -2.79852 -6.09851 3.6198
H -4.95154 -6.95323 3.88724
H -1.87765 -2.32376 1.45656
H -1.89824 -6.62291 1.08108
H -1.91474 -8.96844 1.51979
H -1.81832 -8.24751 3.1849
H -3.92422 -9.83856 1.86959
H -4.07257 -9.14205 3.54351
H -5.69381 -8.20879 1.61134
H -3.23286 -2.63983 0.28673
H -1.53623 -3.07582 -0.14877
H -5.86969 -9.99367 4.69115
H -6.57857 -11.6247 4.39003
H -7.57581 -10.31312 5.15732
H -9.33938 -6.16198 4.11736
H -10.10529 -4.96646 3.06519
H -7.91863 -4.25078 2.14902
H -8.04765 -4.0242 3.90453
$end

$opt
CONSTRAINT
tors           1           2           3           4     +41.966
tors           3           4           5           6    -126.841
tors           4           5           6           7    -178.870
tors           5           6           7           8    +115.673
tors           6           7           8           9     -74.137
tors           7           8           9          10    +102.247
tors           8           9          10          11    +178.235
tors           9          10          11          12    +173.755
tors          11          12          13          14    +120.662
ENDCONSTRAINT
$end

$rem
JOBTYPE                   OPT
METHOD                    B3LYP
DFT_D                     d3_op
BASIS                     STO-3G
GEOM_OPT_MAX_CYCLES       100
GEOM_OPT_TOL_GRADIENT     300
GEOM_OPT_TOL_DISPLACEMENT 1200
GEOM_OPT_TOL_ENERGY       100
SYMMETRY                  False
THRESH                    12
SCF_CONVERGENCE           8
MAX_SUB_FILE_NUM          128
MEM_STATIC                400
MEM_TOTAL                 4000
$end
