$molecule
0  1
O -2.0180582427 -2.8407219919 0.0869209484
C -2.817040929 -1.879575927 0.15625848
C -2.5269907654 -0.4865168552 0.8210259611
C -2.7078869585 0.789631969 -0.1052395
C -2.8423325684 0.5311788052 -1.6536331881
O -2.139579135 1.5734873659 -2.4070693266
C -0.8669462886 1.0167642231 -2.9225651745
C 0.34368346 1.5540196489 -2.0601565384
O 1.5865286491 0.9720707356 -2.6120975067
C 2.3896466627 0.2159487521 -1.6671792937
C 2.6469590111 0.9111132073 -0.2732579092
C 3.1017361523 0.0140597225 0.9552896433
C 3.3847800964 -1.5084891014 0.704153585
O 4.0553595816 -2.0593918985 -0.1920447973
O -4.1930892515 -1.9495447139 -0.2152576281
O 2.6940113855 -2.2307585893 1.7386099645
O 2.9728315978 -0.7915734342 -2.1157371458
C 2.9072565508 -3.6860509777 1.5669061427
C 3.8829528001 1.9210204797 -0.3887279306
C 3.7327110128 2.9976101564 0.7569737615
C 4.1083441633 2.1398527125 2.0215230226
C 4.4580905051 0.7490421163 1.3568273059
O 5.0408523764 1.1149895863 0.0473919616
H 1.7496912536 1.475898163 0.0221994535
H 2.3602913534 0.0739982439 1.7712974036
H 4.0494428352 2.3291073084 -1.4047159339
H 4.4458489788 3.8230017651 0.6024015715
H 2.7144283942 3.4152797407 0.8079997765
H 4.986514373 2.5514461406 2.5436750311
H 3.2773428666 2.0533890717 2.7396349375
H 5.1643454392 0.1187567453 1.9312255212
O -3.4471021349 -0.3970109953 -2.2246286831
C -4.4859696558 -3.2618505028 -0.8350131503
C -3.6198466952 -0.1775469817 1.9346640937
C -3.1453161549 1.0592446818 2.7995639189
C -3.4831180453 2.2584632803 1.837612639
C -3.9885065699 1.4777746827 0.5619507411
O -4.751407669 0.3535244692 1.140763777
H -1.5049874246 -0.5275010344 1.2377575748
H -1.8389842498 1.4593943507 0.0133789071
H -4.1904393883 -4.102304555 -0.174297697
H -3.9391429499 -1.0631584095 2.5172757877
H -3.7186738587 1.1176641185 3.7381103412
H -2.0728449563 1.0009311765 3.0451067132
H -4.2920000747 2.8853317832 2.2459500193
H -2.6124350751 2.8987272776 1.6231374527
H -4.6198138402 2.0617538486 -0.1356720659
H -3.9634863863 -3.3726206131 -1.8071462887
H -5.5786469234 -3.281268935 -1.0005990155
H 2.2980156969 -4.1792103028 2.3465124449
H 3.9734285884 -3.9621436226 1.7007312779
H 2.5796955184 -4.0305909994 0.5648800071
H 0.3856468404 2.6629816452 -2.1306920619
H 0.1686519376 1.2805381217 -1.0012875772
H -0.741673378 1.3670703645 -3.9697020601
H -0.852660481 -0.0939510496 -2.931108555
$end

$rem
JOBTYPE                   OPT
METHOD                    B3LYP
DFT_D                     d3_op
BASIS                     STO-3G
GEOM_OPT_MAX_CYCLES       100
GEOM_OPT_TOL_GRADIENT     300
GEOM_OPT_TOL_DISPLACEMENT 1200
GEOM_OPT_TOL_ENERGY       100
SYMMETRY                  False
THRESH                    12
SCF_CONVERGENCE           8
MAX_SUB_FILE_NUM          128
MEM_STATIC                400
MEM_TOTAL                 4000
$end
