$molecule
0  1
O -3.94934 -3.66094 2.70899
C -3.26408 -4.56952 2.26188
C -3.36658 -6.02376 2.66595
C -2.15308 -6.92143 2.37365
C -0.90599 -6.22746 1.87237
O -1.05367 -4.87384 1.97878
C 0.15706 -4.15358 1.7246
C 0.80749 -4.65569 0.4397
O -0.2023 -5.11217 -0.474
C 0.14665 -5.09589 -1.78439
C -0.64156 -6.08013 -2.61543
C 0.16724 -6.80361 -3.70203
C 1.67461 -6.71572 -3.5724
O 2.3997 -5.97447 -4.21998
O -3.07131 -4.46051 0.90465
O 2.22556 -7.38078 -2.52015
O 0.83346 -4.21153 -2.27907
C 3.56388 -7.34997 -2.18934
C -1.26128 -7.29388 -1.88178
C -2.45656 -7.81746 -2.67813
C -1.75687 -8.43767 -3.87171
C -0.29254 -8.2517 -3.46019
O -0.32351 -8.32874 -2.05338
H -1.45913 -5.48017 -3.07568
H -0.08432 -6.41517 -4.71412
H -1.57888 -7.08686 -0.83888
H -2.91581 -8.6336 -2.07498
H -3.23582 -7.0639 -2.92257
H -2.02067 -9.51787 -3.91096
H -1.97036 -7.95659 -4.85082
H 0.36005 -8.98894 -3.9778
O 0.14431 -6.84618 1.75341
C -3.12353 -3.30047 0.15052
C -3.43694 -6.17391 4.20198
C -4.08059 -7.51088 4.56791
C -2.97 -8.46928 4.19568
C -1.87791 -7.47866 3.78096
O -2.10175 -6.35982 4.60187
H -4.31066 -6.41542 2.22415
H -2.39437 -7.71481 1.63227
H -3.30889 -2.39606 0.76809
H -3.98387 -5.34546 4.70309
H -4.2029 -7.52603 5.67486
H -5.0628 -7.71003 4.08802
H -2.66254 -9.02341 5.1105
H -3.21225 -9.18529 3.38069
H -0.87642 -7.95446 3.8677
H -3.92859 -3.39338 -0.6065
H -2.15586 -3.1651 -0.37451
H 3.73115 -7.98233 -1.29341
H 3.87661 -6.30976 -1.95617
H 4.17396 -7.74825 -3.02807
H 1.42441 -3.81848 0.04217
H 1.53651 -5.47578 0.60426
H 0.87048 -4.19392 2.57606
H -0.1501 -3.09563 1.58159
$end

$opt
CONSTRAINT
tors           1           2           3           4    -159.911
tors           3           4           5           6      +9.521
tors           4           5           6           7    +170.694
tors           5           6           7           8     +48.347
tors           6           7           8           9     +30.682
tors           7           8           9          10    +155.650
tors           8           9          10          11    +155.501
tors           9          10          11          12    -141.032
tors          11          12          13          14    -101.704
ENDCONSTRAINT
$end

$rem
JOBTYPE                   OPT
METHOD                    B3LYP
DFT_D                     d3_op
BASIS                     STO-3G
GEOM_OPT_MAX_CYCLES       100
GEOM_OPT_TOL_GRADIENT     300
GEOM_OPT_TOL_DISPLACEMENT 1200
GEOM_OPT_TOL_ENERGY       100
SYMMETRY                  False
THRESH                    12
SCF_CONVERGENCE           8
MAX_SUB_FILE_NUM          128
MEM_STATIC                400
MEM_TOTAL                 4000
$end
