$molecule
0  1
O -3.94934 -3.66094 2.70899
C -3.26408 -4.56952 2.26188
C -3.36658 -6.02376 2.66595
C -2.31155 -6.5557 3.64972
C -1.37882 -5.53148 4.25724
O -1.50549 -5.53749 5.61715
C -0.25272 -5.66036 6.29886
C -0.48089 -5.76361 7.80332
O -1.79723 -6.2753 8.0647
C -1.97283 -7.59423 7.80255
C -3.37513 -8.07107 8.09721
C -3.51299 -9.58606 8.30711
C -2.22048 -10.34034 8.54626
O -1.91106 -11.40049 8.02195
O -2.25252 -4.26608 1.40717
O -1.40695 -9.86143 9.5296
O -1.08133 -8.30372 7.34954
C -0.21958 -10.44607 9.91737
C -3.93064 -7.57843 9.46277
C -5.45934 -7.59174 9.42725
C -5.72738 -9.08243 9.43309
C -4.30155 -9.61104 9.62774
O -3.6595 -8.61004 10.37552
H -4.04915 -7.64876 7.32186
H -4.05333 -10.09343 7.47768
H -3.5782 -6.56742 9.75959
H -5.80451 -7.16622 10.39725
H -5.93404 -7.02709 8.59614
H -6.37003 -9.32049 10.30947
H -6.18124 -9.4873 8.5025
H -4.31647 -10.62519 10.08559
O -0.50163 -4.93736 3.64525
C -1.96756 -2.99265 0.96113
C -4.6602 -6.32713 3.46386
C -5.06125 -7.78273 3.24786
C -3.9496 -8.48365 3.99242
C -3.24542 -7.27588 4.6289
O -4.26443 -6.33032 4.81293
H -3.41841 -6.60184 1.71528
H -1.64174 -7.29266 3.154
H -1.71619 -2.33379 1.81968
H -5.51532 -5.66385 3.20787
H -6.01579 -7.93444 3.802
H -5.19825 -8.10229 2.19245
H -4.40574 -9.1438 4.76361
H -3.24628 -9.06511 3.3577
H -2.69577 -7.62381 5.4976
H -2.83785 -2.57673 0.40977
H -1.09641 -3.03389 0.27567
H 0.23205 -9.84458 10.73259
H 0.48792 -10.47724 9.06138
H -0.40382 -11.47564 10.29172
H 0.33449 -6.28424 8.35289
H -0.50903 -4.71808 8.17692
H 0.46804 -4.84624 6.0607
H 0.20249 -6.62239 5.97276
$end

$opt
CONSTRAINT
tors           1           2           3           4    -101.389
tors           3           4           5           6    +120.203
tors           4           5           6           7    +128.571
tors           5           6           7           8    -175.827
tors           6           7           8           9     +24.633
tors           7           8           9          10     +72.731
tors           8           9          10          11    -180.000
tors           9          10          11          12    -159.144
tors          11          12          13          14    -135.321
ENDCONSTRAINT
$end

$rem
JOBTYPE                   OPT
METHOD                    B3LYP
DFT_D                     d3_op
BASIS                     STO-3G
GEOM_OPT_MAX_CYCLES       100
GEOM_OPT_TOL_GRADIENT     300
GEOM_OPT_TOL_DISPLACEMENT 1200
GEOM_OPT_TOL_ENERGY       100
SYMMETRY                  False
THRESH                    12
SCF_CONVERGENCE           8
MAX_SUB_FILE_NUM          128
MEM_STATIC                400
MEM_TOTAL                 4000
$end
