$molecule
0  1
O -3.94934 -3.66094 2.70899
C -3.26408 -4.56952 2.26188
C -3.36658 -6.02376 2.66595
C -2.29367 -6.56361 3.62578
C -1.34178 -5.546 4.21439
O -0.55485 -6.13933 5.15998
C 0.40633 -5.24685 5.73345
C 1.69346 -5.99816 6.05745
O 1.53494 -6.73632 7.27928
C 0.88835 -7.92282 7.16403
C 1.10537 -8.82902 8.35246
C 0.94546 -10.32827 8.06102
C 0.95057 -10.72112 6.59734
O 1.11886 -9.95613 5.65871
O -2.28359 -4.27328 1.36799
O 0.79687 -12.04661 6.3385
O -0.16105 -8.02784 6.55236
C 0.79503 -12.59613 5.07361
C 2.55061 -8.83116 8.91343
C 2.52979 -9.2749 10.37578
C 2.19321 -10.74397 10.2222
C 2.23235 -10.87473 8.69564
O 3.18341 -9.92156 8.28928
H 0.41771 -8.47402 9.15347
H 0.00497 -10.73005 8.49822
H 3.07484 -7.8552 8.8317
H 3.57512 -9.18953 10.75122
H 1.85568 -8.70073 11.04709
H 3.00287 -11.34133 10.69705
H 1.20372 -11.0496 10.62642
H 2.44035 -11.92661 8.39967
O -1.31362 -4.34882 3.95649
C -2.02133 -3.0048 0.89437
C -4.63387 -6.28773 3.51254
C -5.0177 -7.7653 3.4403
C -3.92794 -8.37887 4.28965
C -3.19517 -7.11579 4.75094
O -4.20697 -6.14613 4.84284
H -3.46136 -6.61153 1.72549
H -1.66983 -7.35548 3.1548
H -1.74539 -2.33175 1.73413
H -5.50371 -5.66409 3.20974
H -5.98839 -7.88133 3.97394
H -5.11223 -8.17973 2.41359
H -4.40388 -8.888 5.15734
H -3.25019 -9.08356 3.7608
H -2.64728 -7.32839 5.69348
H -2.91214 -2.60174 0.36679
H -1.17354 -3.0512 0.18056
H 0.65134 -13.69312 5.15375
H 1.76486 -12.3982 4.56899
H -0.03582 -12.16903 4.47213
H 2.0716 -6.62023 5.21509
H 2.4641 -5.22632 6.27148
H -0.0014 -4.73162 6.63013
H 0.73804 -4.47699 4.99759
$end

$opt
CONSTRAINT
tors           1           2           3           4    -102.684
tors           3           4           5           6    +172.863
tors           4           5           6           7    +178.039
tors           5           6           7           8    -145.556
tors           6           7           8           9     -78.817
tors           7           8           9          10     +80.783
tors           8           9          10          11    +162.835
tors           9          10          11          12    -154.804
tors          11          12          13          14      +2.849
ENDCONSTRAINT
$end

$rem
JOBTYPE                   OPT
METHOD                    B3LYP
DFT_D                     d3_op
BASIS                     STO-3G
GEOM_OPT_MAX_CYCLES       100
GEOM_OPT_TOL_GRADIENT     300
GEOM_OPT_TOL_DISPLACEMENT 1200
GEOM_OPT_TOL_ENERGY       100
SYMMETRY                  False
THRESH                    12
SCF_CONVERGENCE           8
MAX_SUB_FILE_NUM          128
MEM_STATIC                400
MEM_TOTAL                 4000
$end
