$molecule
0  1
O -3.94934 -3.66094 2.70899
C -3.26408 -4.56952 2.26188
C -3.36658 -6.02376 2.66595
C -2.58785 -6.46193 3.91713
C -1.93723 -5.36183 4.72618
O -1.53179 -5.85236 5.93466
C -0.70405 -4.93994 6.66375
C -0.26205 -5.56886 7.98103
O -0.69604 -4.75487 9.08192
C -2.03698 -4.58071 9.18528
C -2.43511 -3.7911 10.40948
C -2.48754 -4.60085 11.71325
C -1.80621 -5.9541 11.67849
O -0.60431 -6.13954 11.55352
O -2.40265 -4.29717 1.24659
O -2.61275 -7.02924 11.87917
O -2.86126 -5.20174 8.52476
C -2.17494 -8.33699 11.89229
C -1.46178 -2.66759 10.82735
C -2.2178 -1.61778 11.64412
C -2.46272 -2.3814 12.93158
C -1.68747 -3.67143 12.63954
O -0.63388 -3.25379 11.80308
H -3.41422 -3.31867 10.16623
H -3.53986 -4.76247 12.03825
H -0.94846 -2.18988 9.96446
H -1.50277 -0.79017 11.85297
H -3.12796 -1.19816 11.16331
H -1.99246 -1.8184 13.76802
H -3.52917 -2.59192 13.16481
H -1.39089 -4.17655 13.58525
O -1.76228 -4.20267 4.37053
C -2.19584 -3.0397 0.7193
C -4.80526 -6.40122 3.05828
C -5.00663 -7.9107 2.93143
C -4.21379 -8.39821 4.12325
C -3.76653 -7.06271 4.72592
O -4.83661 -6.19439 4.44647
H -3.06319 -6.62216 1.77685
H -1.81064 -7.23202 3.71466
H -1.81555 -2.35341 1.50602
H -5.57486 -5.86175 2.46318
H -6.08424 -8.12635 3.11058
H -4.70257 -8.33678 1.95104
H -4.91271 -8.91028 4.82202
H -3.35857 -9.06775 3.8872
H -3.53778 -7.20979 5.80355
H -3.14298 -2.64033 0.2977
H -1.44279 -3.10493 -0.09256
H -3.03984 -9.00852 12.06964
H -1.43346 -8.48489 12.70624
H -1.71603 -8.59576 10.91388
H -0.64592 -6.60857 8.08865
H 0.84713 -5.62577 8.01421
H -1.21188 -3.96087 6.82086
H 0.21241 -4.72895 6.06562
$end

$opt
CONSTRAINT
tors           1           2           3           4     -84.749
tors           3           4           5           6    +167.303
tors           4           5           6           7    +169.797
tors           5           6           7           8    -178.520
tors           6           7           8           9    -121.372
tors           7           8           9          10     +60.328
tors           8           9          10          11    +176.336
tors           9          10          11          12     -80.804
tors          11          12          13          14     +66.433
ENDCONSTRAINT
$end

$rem
JOBTYPE                   OPT
METHOD                    B3LYP
DFT_D                     d3_op
BASIS                     STO-3G
GEOM_OPT_MAX_CYCLES       100
GEOM_OPT_TOL_GRADIENT     300
GEOM_OPT_TOL_DISPLACEMENT 1200
GEOM_OPT_TOL_ENERGY       100
SYMMETRY                  False
THRESH                    12
SCF_CONVERGENCE           8
MAX_SUB_FILE_NUM          128
MEM_STATIC                400
MEM_TOTAL                 4000
$end
