$molecule
0  1
O -3.94934 -3.66094 2.70899
C -3.26408 -4.56952 2.26188
C -3.36658 -6.02376 2.66595
C -2.28161 -6.56914 3.60896
C -1.31671 -5.55615 4.18421
O -0.7206 -6.06603 5.3023
C 0.21473 -5.16397 5.90287
C 0.94069 -5.84996 7.05549
O 0.35309 -5.45841 8.30621
C -0.72645 -6.18133 8.69496
C -1.24807 -5.77586 10.05296
C -0.34302 -6.15592 11.23394
C 1.07698 -6.54844 10.87864
O 1.49549 -6.74691 9.74726
O -2.29932 -4.27554 1.34992
O 1.92017 -6.74422 11.92686
O -1.2972 -6.99816 7.98389
C 3.24154 -7.11899 11.80219
C -1.38655 -4.25724 10.25404
C -2.40864 -3.97546 11.35368
C -1.64288 -4.43938 12.57692
C -0.29038 -4.78611 11.94267
O -0.17812 -3.88243 10.86803
H -2.24662 -6.25737 10.16534
H -0.76428 -6.96373 11.87195
H -1.65536 -3.71532 9.32091
H -2.53104 -2.8699 11.40895
H -3.40457 -4.44722 11.21069
H -1.54037 -3.57711 13.27271
H -2.0803 -5.3108 13.11065
H 0.51494 -4.73067 12.70766
O -1.15068 -4.40609 3.79743
C -2.04828 -3.00889 0.86525
C -4.63548 -6.27775 3.50956
C -5.03141 -7.75057 3.43414
C -3.94563 -8.37078 4.27982
C -3.20051 -7.11234 4.73744
O -4.20426 -6.13671 4.83615
H -3.46463 -6.60628 1.72259
H -1.67519 -7.39239 3.17144
H -1.76053 -2.33054 1.69675
H -5.50086 -5.64734 3.20768
H -6.00305 -7.86185 3.96711
H -5.12716 -8.16039 2.40565
H -4.42474 -8.87258 5.15027
H -3.27751 -9.0849 3.75163
H -2.66852 -7.34653 5.68243
H -2.94867 -2.611 0.35018
H -1.21215 -3.05692 0.13792
H 3.69215 -7.20486 12.81216
H 3.80273 -6.3543 11.2236
H 3.31401 -8.10372 11.29289
H 1.11696 -6.94196 6.93021
H 1.94975 -5.38425 7.08552
H -0.23099 -4.19136 6.21271
H 0.99371 -4.96042 5.13033
$end

$opt
CONSTRAINT
tors           1           2           3           4    -103.581
tors           3           4           5           6    +159.990
tors           4           5           6           7    +179.737
tors           5           6           7           8    -174.273
tors           6           7           8           9     -99.942
tors           7           8           9          10     +85.337
tors           8           9          10          11    +176.601
tors           9          10          11          12     -70.340
tors          11          12          13          14      -9.792
ENDCONSTRAINT
$end

$rem
JOBTYPE                   OPT
METHOD                    B3LYP
DFT_D                     d3_op
BASIS                     STO-3G
GEOM_OPT_MAX_CYCLES       100
GEOM_OPT_TOL_GRADIENT     300
GEOM_OPT_TOL_DISPLACEMENT 1200
GEOM_OPT_TOL_ENERGY       100
SYMMETRY                  False
THRESH                    12
SCF_CONVERGENCE           8
MAX_SUB_FILE_NUM          128
MEM_STATIC                400
MEM_TOTAL                 4000
$end
