$molecule
0  1
O -3.94934 -3.66094 2.70899
C -3.26408 -4.56952 2.26188
C -3.36658 -6.02376 2.66595
C -2.05651 -6.75173 3.00891
C -0.80983 -5.89818 3.08186
O 0.18586 -6.58442 3.71677
C 1.44128 -5.89669 3.7027
C 1.74309 -5.32527 5.08419
O 0.51786 -5.10012 5.79904
C 0.26326 -5.96965 6.80811
C -1.19052 -5.9876 7.21657
C -1.80198 -7.38768 7.37205
C -0.8148 -8.53484 7.45088
O -0.4889 -9.25486 6.51818
O -2.55642 -4.32967 1.12332
O -0.23618 -8.78468 8.66016
O 1.13769 -6.54562 7.44477
C 0.6869 -9.78181 8.89724
C -1.41973 -5.38469 8.61451
C -2.866 -4.90601 8.73698
C -3.59367 -6.2322 8.78635
C -2.39911 -7.19643 8.79504
O -1.39622 -6.48608 9.47838
H -1.73938 -5.3483 6.49547
H -2.67526 -7.69306 6.78143
H -0.71603 -4.55769 8.85498
H -2.9638 -4.40803 9.72835
H -3.20657 -4.20823 7.94184
H -4.14918 -6.28988 9.74877
H -4.28244 -6.43018 7.93659
H -2.69967 -8.16483 9.25492
O -0.74169 -4.70183 2.83404
C -2.44357 -3.09429 0.5197
C -4.19193 -6.26741 3.93151
C -4.75355 -7.68784 3.92817
C -3.48864 -8.4923 4.13468
C -2.46993 -7.35889 4.33101
O -3.21913 -6.32751 4.93175
H -3.87043 -6.51851 1.80453
H -1.81737 -7.55425 2.27563
H -1.97005 -2.37041 1.21691
H -5.01176 -5.53273 4.08504
H -5.39141 -7.78833 4.8357
H -5.34674 -7.96132 3.02922
H -3.60295 -9.092 5.06443
H -3.20926 -9.16134 3.29216
H -1.58146 -7.74 4.85731
H -3.44548 -2.72313 0.21532
H -1.80784 -3.18822 -0.38442
H 0.98611 -9.7535 9.96496
H 1.58922 -9.62452 8.26843
H 0.24214 -10.77548 8.67602
H 2.3709 -6.10328 5.57257
H 2.38108 -4.41696 5.04326
H 1.46989 -5.03644 2.99686
H 2.25972 -6.55374 3.33788
$end

$opt
CONSTRAINT
tors           1           2           3           4    -131.785
tors           3           4           5           6    +164.514
tors           4           5           6           7    +173.877
tors           5           6           7           8    +106.250
tors           6           7           8           9     -25.718
tors           7           8           9          10    +107.136
tors           8           9          10          11    -161.050
tors           9          10          11          12    +133.079
tors          11          12          13          14     -97.900
ENDCONSTRAINT
$end

$rem
JOBTYPE                   OPT
METHOD                    B3LYP
DFT_D                     d3_op
BASIS                     STO-3G
GEOM_OPT_MAX_CYCLES       100
GEOM_OPT_TOL_GRADIENT     300
GEOM_OPT_TOL_DISPLACEMENT 1200
GEOM_OPT_TOL_ENERGY       100
SYMMETRY                  False
THRESH                    12
SCF_CONVERGENCE           8
MAX_SUB_FILE_NUM          128
MEM_STATIC                400
MEM_TOTAL                 4000
$end
