$molecule
0  1
O -3.94934 -3.66094 2.70899
C -3.26408 -4.56952 2.26188
C -3.36658 -6.02376 2.66595
C -2.27868 -6.5705 3.60478
C -1.3106 -5.55867 4.1767
O -0.63771 -6.10533 5.23207
C 0.39705 -5.25684 5.7406
C 0.88833 -5.77653 7.0877
O -0.14925 -6.53652 7.72701
C 0.27134 -7.43444 8.65221
C 0.75519 -8.72734 8.03989
C 1.7809 -9.4989 8.88304
C 1.90137 -9.07075 10.3318
O 2.94918 -8.84134 10.91832
O -2.299 -4.2756 1.35026
O 0.76484 -9.1366 11.08439
O 0.54579 -7.00183 9.75875
C 0.70534 -8.88061 12.4387
C -0.35048 -9.79138 7.88964
C 0.03292 -10.77566 6.78477
C 1.18597 -11.50774 7.44634
C 1.12912 -10.89553 8.85231
O -0.23475 -10.59578 9.03685
H 1.16156 -8.52569 7.02598
H 2.80164 -9.48226 8.44068
H -1.35511 -9.35709 7.69225
H -0.82168 -11.48172 6.67599
H 0.2615 -10.32869 5.79329
H 0.94365 -12.59325 7.47006
H 2.18162 -11.34694 6.9789
H 1.58265 -11.58251 9.60078
O -1.15895 -4.40199 3.8041
C -2.04467 -3.00828 0.86905
C -4.62805 -6.27842 3.52138
C -5.02078 -7.75337 3.4557
C -3.93014 -8.36804 4.30064
C -3.18277 -7.107 4.74477
O -4.18705 -6.13139 4.84481
H -3.47178 -6.60734 1.72407
H -1.67463 -7.39072 3.15786
H -1.75449 -2.33323 1.70243
H -5.49703 -5.65115 3.22347
H -5.98985 -7.86499 3.99316
H -5.11971 -8.16802 2.42946
H -4.40369 -8.86214 5.17848
H -3.26533 -9.08692 3.77462
H -2.63637 -7.32938 5.68663
H -2.94413 -2.60621 0.35566
H -1.20892 -3.05655 0.1413
H -0.34056 -9.00556 12.78632
H 1.02969 -7.83842 12.64556
H 1.35362 -9.5934 12.99173
H 1.72324 -6.45857 6.82168
H 1.32166 -4.98747 7.74027
H -0.07651 -4.28123 5.99963
H 1.2211 -5.06397 5.01775
$end

$opt
CONSTRAINT
tors           1           2           3           4    -103.803
tors           3           4           5           6    +164.514
tors           4           5           6           7    +173.877
tors           5           6           7           8    +167.320
tors           6           7           8           9     -25.718
tors           7           8           9          10    +157.041
tors           8           9          10          11     -81.254
tors           9          10          11          12    +153.923
tors          11          12          13          14    -131.808
ENDCONSTRAINT
$end

$rem
JOBTYPE                   OPT
METHOD                    B3LYP
DFT_D                     d3_op
BASIS                     STO-3G
GEOM_OPT_MAX_CYCLES       100
GEOM_OPT_TOL_GRADIENT     300
GEOM_OPT_TOL_DISPLACEMENT 1200
GEOM_OPT_TOL_ENERGY       100
SYMMETRY                  False
THRESH                    12
SCF_CONVERGENCE           8
MAX_SUB_FILE_NUM          128
MEM_STATIC                400
MEM_TOTAL                 4000
$end
