$molecule
0  1
O -5.1570426888 0.9303877976 0.852408872
C -4.8259913593 0.6208750768 -0.3121723923
C -4.06789971 -0.6705039581 -0.7854636859
C -2.5002505019 -0.6129344969 -0.5463223895
C -2.0329306082 0.7338938176 0.1127459252
O -0.8966924582 0.4806274808 0.9374958343
C -0.3426117459 1.7551720336 1.4572816684
C 0.7810310236 1.3610476822 2.4816570585
O 1.4013467439 0.0920823969 2.0303322267
C 2.7148728142 0.3424658992 1.5038689494
C 3.1098832538 -0.8884777041 0.6226202849
C 3.1260856884 -0.532559017 -0.932550219
C 2.6679477294 0.9379362856 -1.2313883357
O 1.5305689461 1.3009691176 -1.6084306944
O -5.1392980922 1.3971871859 -1.4760874261
O 3.7646713935 1.8278828322 -1.0223987887
O 3.3598030778 1.3946301294 1.7047878151
C 3.3254094155 3.2283860028 -1.2180706885
C 4.6224920869 -1.3228388098 0.8388063039
C 4.8290510327 -2.7467510934 0.1861263636
C 4.8563136063 -2.3778117899 -1.3441127127
C 4.6487394962 -0.8128212804 -1.2841094819
O 5.3724295332 -0.4142162258 -0.0562880925
H 2.4009151643 -1.7071647604 0.836932757
H 2.4465283229 -1.2058601328 -1.4847581327
H 4.9823352986 -1.2218814235 1.8810112136
H 5.7856355595 -3.1837538147 0.5137400372
H 4.015405541 -3.443920761 0.4423329092
H 5.8297287608 -2.618823608 -1.7999770421
H 4.0626790934 -2.881969383 -1.918386335
H 5.0289547408 -0.2499720234 -2.157980952
O -2.5452826146 1.8636349421 -0.0520316456
C -5.7793369063 2.6689064717 -1.071815558
C -4.4495068381 -1.9341588243 0.0993617372
C -3.990321566 -3.2348519006 -0.670802504
C -2.432431007 -3.1810059246 -0.4548605172
C -2.2885154513 -1.8637888557 0.4046411635
O -3.5101789619 -1.8571274756 1.2416909474
H -4.2977194307 -0.8308520187 -1.8534224913
H -1.9480578671 -0.7295569968 -1.4979239627
H -5.0953749907 3.2805079821 -0.4484196379
H -5.4958011872 -1.9407843073 0.4615379937
H -4.4318926095 -4.1325502465 -0.2094211848
H -4.2747211517 -3.2087203779 -1.7348541093
H -2.0739620284 -4.0525145574 0.1155972598
H -1.8712090669 -3.12349508 -1.4011725085
H -1.3801522158 -1.7936856008 1.0333197019
H -6.7160590513 2.4949172592 -0.5032934648
H -6.0093843319 3.2086571978 -2.0088404428
H 4.2328120128 3.8495438274 -1.1068204804
H 2.5787181885 3.5262638298 -0.4535779584
H 2.8837328815 3.3838941459 -2.223610382
H 1.5583645568 2.152708415 2.5486105278
H 0.3417986358 1.1779443493 3.4835007511
H -1.1294950013 2.3702893752 1.9448843655
H 0.0867173104 2.3407800864 0.6141440568
$end

$rem
JOBTYPE                   OPT
METHOD                    B3LYP
DFT_D                     d3_op
BASIS                     STO-3G
GEOM_OPT_MAX_CYCLES       100
GEOM_OPT_TOL_GRADIENT     300
GEOM_OPT_TOL_DISPLACEMENT 1200
GEOM_OPT_TOL_ENERGY       100
SYMMETRY                  False
THRESH                    12
SCF_CONVERGENCE           8
MAX_SUB_FILE_NUM          128
MEM_STATIC                400
MEM_TOTAL                 4000
$end
