$molecule
0  1
O -3.94934 -3.66094 2.70899
C -3.26408 -4.56952 2.26188
C -3.36658 -6.02376 2.66595
C -2.13948 -6.65204 3.34663
C -1.01248 -5.70996 3.70783
O -0.09872 -6.35772 4.48941
C 1.24012 -5.88916 4.29651
C 1.43428 -4.5491 4.99842
O 0.23159 -3.76944 4.906
C -0.16147 -3.16542 6.05483
C -1.65888 -2.99174 6.14573
C -2.34563 -3.84678 7.2207
C -1.43048 -4.46052 8.26115
O -1.08452 -5.63249 8.29795
O -2.45041 -4.30035 1.2054
O -0.86373 -3.60534 9.15659
O 0.60696 -2.86383 6.95973
C 0.02842 -3.98041 10.13929
C -2.1379 -1.58478 6.54655
C -3.55909 -1.36526 6.02795
C -4.3394 -2.30881 6.92584
C -3.22661 -2.76877 7.87723
O -2.35251 -1.66409 7.93548
H -2.08103 -3.23614 5.14251
H -2.91604 -4.68346 6.77101
H -1.46199 -0.77444 6.19679
H -3.83547 -0.31796 6.28729
H -3.70663 -1.51992 4.93734
H -5.11161 -1.71866 7.46706
H -4.8097 -3.17409 6.40965
H -3.64941 -3.11147 8.84727
O -0.67979 -4.84069 2.91074
C -2.27518 -3.04649 0.65759
C -4.43842 -6.25692 3.75074
C -4.89695 -7.71479 3.73381
C -3.68671 -8.39594 4.3327
C -2.8067 -7.18036 4.63679
O -3.72889 -6.17011 4.95741
H -3.66765 -6.57635 1.74773
H -1.69391 -7.47284 2.74113
H -1.86535 -2.35051 1.42071
H -5.32105 -5.58784 3.6521
H -5.74495 -7.80879 4.44957
H -5.2126 -8.09289 2.73767
H -3.99554 -8.88736 5.28242
H -3.17794 -9.13218 3.67356
H -2.08048 -7.44055 5.43695
H -3.24238 -2.657 0.27411
H -1.5578 -3.11511 -0.18564
H 0.32537 -3.08428 10.72161
H 0.93698 -4.42649 9.68111
H -0.44558 -4.71354 10.82635
H 1.66575 -4.7944 6.06162
H 2.30865 -4.0147 4.57014
H 1.46602 -5.80666 3.20796
H 1.97514 -6.62004 4.69621
$end

$opt
CONSTRAINT
tors           1           2           3           4    -116.583
tors           3           4           5           6    +170.229
tors           4           5           6           7    +148.193
tors           5           6           7           8     +76.345
tors           6           7           8           9     -35.974
tors           7           8           9          10    +134.770
tors           8           9          10          11    -150.168
tors           9          10          11          12    +111.818
tors          11          12          13          14    -103.847
ENDCONSTRAINT
$end

$rem
JOBTYPE                   OPT
METHOD                    B3LYP
DFT_D                     d3_op
BASIS                     STO-3G
GEOM_OPT_MAX_CYCLES       100
GEOM_OPT_TOL_GRADIENT     300
GEOM_OPT_TOL_DISPLACEMENT 1200
GEOM_OPT_TOL_ENERGY       100
SYMMETRY                  False
THRESH                    12
SCF_CONVERGENCE           8
MAX_SUB_FILE_NUM          128
MEM_STATIC                400
MEM_TOTAL                 4000
$end
