$molecule
0  1
O -3.0933995924 -0.9972173138 1.8279369974
C -3.5759730565 -0.7077887771 0.7121346857
C -3.0068386288 -1.0983245588 -0.702636488
C -2.2521923617 0.0749945863 -1.459493206
C -2.1145511117 1.359482277 -0.5688575116
O -1.1405289848 2.2291863827 -1.1443619511
C -1.0490764638 3.4956051748 -0.3719698719
C 0.1720543138 3.3816724821 0.620500124
O 0.275626564 1.944124 0.9609958597
C 1.6291183342 1.487592914 0.9015530179
C 1.5985063095 -0.043513156 1.2074966998
C 2.1666768599 -0.9085743396 -0.0008893943
C 2.6149018117 -0.0015408772 -1.1962647088
O 1.8674987294 0.4650851586 -2.0933587049
O -4.8763883227 -0.1300438881 0.5136838807
O 4.0168326837 0.2366485542 -1.1454703841
O 2.6044659954 2.2136324312 0.6075073399
C 4.4106336239 1.1817443122 -2.2163535011
C 2.5911099329 -0.4718755583 2.370081114
C 2.1835156098 -1.924530664 2.8383513691
C 2.726731196 -2.791369457 1.6425300617
C 3.3504100925 -1.6769700303 0.7117768652
O 3.8802658705 -0.6790876585 1.6723641574
H 0.5515669465 -0.3258192901 1.4178182033
H 1.347876514 -1.5668456177 -0.3582304006
H 2.7043645294 0.2739886342 3.1804587584
H 2.6877794015 -2.1788883127 3.7841659495
H 1.0951148908 -2.024845678 2.9770897001
H 3.5065464653 -3.4951586489 1.9748862177
H 1.9307254085 -3.359675627 1.1350363603
H 4.1532974995 -2.022286246 0.0328550892
O -2.7449871356 1.6106003834 0.4840162363
C -5.4343642993 0.2966232241 1.8147684177
C -1.8711596755 -2.1968976105 -0.6078408647
C -1.7298256023 -2.8781703656 -2.0228120877
C -1.0326427562 -1.7252558956 -2.8373761561
C -0.843314332 -0.6131705448 -1.7295345748
O -0.6300296993 -1.4006882126 -0.4906953617
H -3.8569352985 -1.4531120134 -1.3123655294
H -2.7583907302 0.351038449 -2.4024578944
H -4.8205474633 1.1021017647 2.2676017236
H -1.9747645289 -2.8830072804 0.254952776
H -1.0906327265 -3.7733688713 -1.9592855985
H -2.705573706 -3.1694120284 -2.4429189358
H -0.0525230479 -2.0415486865 -3.2286613027
H -1.6480796138 -1.3706371512 -3.6794539908
H 0.0363349723 0.0580068391 -1.8973612146
H -5.4954865929 -0.5470616383 2.5326815501
H -6.4501653089 0.6792869569 1.6047845826
H 5.5038844201 1.3118315322 -2.1185503996
H 3.9057065661 2.1608370388 -2.0895590428
H 4.1687396841 0.783218057 -3.2229465061
H 1.1265525287 3.7079811441 0.1543462155
H -0.0084585912 3.9765280427 1.5412261409
H -1.9904665197 3.6500832921 0.1955066965
H -0.895568296 4.3155545692 -1.1018605392
$end

$rem
JOBTYPE                   OPT
METHOD                    B3LYP
DFT_D                     d3_op
BASIS                     STO-3G
GEOM_OPT_MAX_CYCLES       100
GEOM_OPT_TOL_GRADIENT     300
GEOM_OPT_TOL_DISPLACEMENT 1200
GEOM_OPT_TOL_ENERGY       100
SYMMETRY                  False
THRESH                    12
SCF_CONVERGENCE           8
MAX_SUB_FILE_NUM          128
MEM_STATIC                400
MEM_TOTAL                 4000
$end
