$molecule
0  1
O 2.0698160031 -2.0776662518 0.4462864718
C 3.2239474523 -1.7599413003 0.0833296192
C 3.7636848217 -0.3276866305 -0.2386384798
C 2.8047209358 0.5107850048 -1.1898837649
C 1.5326176207 -0.313997165 -1.6140012317
O 0.398795567 0.1393336758 -0.8812299317
C -0.6967700413 -0.8723296913 -0.8984302498
C -1.5618283824 -0.6983378877 -2.1888121701
O -2.3855027296 0.5144862533 -2.4082197514
C -2.669656457 1.5560082483 -1.4783824595
C -2.7652980053 1.5486693544 0.1200781501
C -3.5968712609 0.4293342009 0.909742872
C -4.0205710177 -0.9040128741 0.1988304903
O -5.1755412564 -1.1685966495 -0.2072594764
O 4.299178559 -2.6941673034 -0.0680782612
O -2.9809891485 -1.8821223535 0.3005770515
O -3.0045523167 2.6330617505 -2.0382514216
C -3.4364914102 -3.1914514818 -0.2202233336
C -1.410707679 1.5586438885 0.971553625
C -1.6730349373 2.4265664168 2.258227839
C -2.6384578689 1.4779668598 3.0668952481
C -2.6508393018 0.1865399638 2.1553019638
O -1.3053832519 0.1910854177 1.5431312447
H -3.2775854841 2.5118209595 0.2898381817
H -4.5533032729 0.8810906535 1.231082214
H -0.492083213 1.779795426 0.3949988458
H -0.7284702006 2.5932850697 2.8009017106
H -2.1271972404 3.402525423 2.0239569734
H -2.2336664089 1.2412032003 4.0634163336
H -3.6475679707 1.9038827492 3.18755269
H -2.8279329797 -0.7682790694 2.6866175278
O 1.5156855967 -1.2617671932 -2.432301867
C 3.8248056044 -4.0631615727 0.2428928169
C 3.7707805886 0.6006228925 1.0567949152
C 4.6927160711 1.8473942972 0.7549217331
C 3.7692108745 2.6774896391 -0.2115449778
C 2.4841651375 1.75995531 -0.2716789972
O 2.4073802045 1.1738999525 1.0877208856
H 4.7756991532 -0.4276285551 -0.6681201285
H 3.3458858175 0.8074553231 -2.1065707681
H 3.0006710188 -4.3705630262 -0.4326854561
H 3.9894678201 0.0688335997 2.003227361
H 4.9079522446 2.4002039052 1.6834288628
H 5.6463534316 1.554466767 0.2878532492
H 3.5210039146 3.6634554779 0.2121837386
H 4.2179785282 2.8234946413 -1.2070387075
H 1.5432390018 2.2835978516 -0.5248126524
H 3.4693340533 -4.1444314674 1.2905556877
H 4.6945072978 -4.7291675141 0.0940617215
H -2.7671934909 -3.5034779189 -1.0454555742
H -4.4804062852 -3.0992218506 -0.5826146423
H -3.3804327443 -3.9376388442 0.5963465063
H -0.8834945936 -0.7410672418 -3.06914976
H -2.2526784746 -1.5679812817 -2.2598746966
H -0.2644287894 -1.8937413484 -0.9305324154
H -1.2241380809 -0.70411194 0.0693765051
$end

$rem
JOBTYPE                   OPT
METHOD                    B3LYP
DFT_D                     d3_op
BASIS                     STO-3G
GEOM_OPT_MAX_CYCLES       100
GEOM_OPT_TOL_GRADIENT     300
GEOM_OPT_TOL_DISPLACEMENT 1200
GEOM_OPT_TOL_ENERGY       100
SYMMETRY                  False
THRESH                    12
SCF_CONVERGENCE           8
MAX_SUB_FILE_NUM          128
MEM_STATIC                400
MEM_TOTAL                 4000
$end
