$molecule
0  1
O -3.94934 -3.66094 2.70899
C -3.26408 -4.56952 2.26188
C -3.36658 -6.02376 2.66595
C -2.19568 -6.94363 2.28296
C -0.97418 -6.27165 1.69605
O -0.25722 -7.17233 0.96109
C 0.53751 -6.56026 -0.0602
C -0.33996 -6.16691 -1.24403
O 0.45597 -5.52027 -2.24963
C 1.38565 -6.30377 -2.85045
C 2.16878 -5.57534 -3.91663
C 2.37868 -4.07667 -3.65543
C 2.10241 -3.60737 -2.24117
O 2.69768 -2.70943 -1.66332
O -2.82814 -4.38269 0.98508
O 0.77433 -3.35964 -2.00313
O 1.35636 -7.52821 -2.81045
C 0.21637 -2.67603 -0.92562
C 3.63225 -6.0593 -4.00612
C 4.18651 -5.75226 -5.39544
C 4.2933 -4.24466 -5.32493
C 3.91008 -4.01401 -3.85757
O 4.35447 -5.17059 -3.19556
H 1.66977 -5.79194 -4.88787
H 1.85092 -3.40139 -4.36465
H 3.76055 -7.13988 -3.77763
H 5.21402 -6.18069 -5.43389
H 3.59515 -6.14643 -6.24972
H 5.3526 -3.95998 -5.51182
H 3.61971 -3.68669 -6.01094
H 4.35134 -3.05617 -3.50408
O -0.48532 -5.23447 2.12886
C -3.02441 -3.22374 0.25712
C -3.34079 -6.16905 4.201
C -3.95789 -7.50568 4.61293
C -2.86209 -8.46098 4.19367
C -1.8134 -7.47057 3.68004
O -1.98122 -6.34577 4.50638
H -4.34157 -6.39141 2.27504
H -2.50277 -7.77966 1.61384
H -2.50513 -2.37114 0.74493
H -3.85528 -5.33747 4.7307
H -4.03041 -7.51795 5.72407
H -4.95929 -7.70693 4.17514
H -2.47807 -8.9759 5.10259
H -3.15129 -9.21224 3.42732
H -0.80432 -7.9397 3.69562
H -4.11001 -3.00286 0.17377
H -2.6336 -3.36165 -0.7704
H -0.40348 -3.37219 -0.33954
H -0.40714 -1.83962 -1.30184
H 0.96623 -2.27007 -0.21444
H -0.87047 -7.05211 -1.6607
H -1.11603 -5.45418 -0.90631
H 1.28427 -7.31234 -0.38136
H 1.11558 -5.69062 0.32714
$end

$opt
CONSTRAINT
tors           1           2           3           4    -164.211
tors           3           4           5           6    -157.343
tors           4           5           6           7    +154.648
tors           5           6           7           8     -77.284
tors           6           7           8           9    +178.417
tors           7           8           9          10     +65.941
tors           8           9          10          11    +178.784
tors           9          10          11          12     +31.814
tors          11          12          13          14    +146.432
ENDCONSTRAINT
$end

$rem
JOBTYPE                   OPT
METHOD                    B3LYP
DFT_D                     d3_op
BASIS                     STO-3G
GEOM_OPT_MAX_CYCLES       100
GEOM_OPT_TOL_GRADIENT     300
GEOM_OPT_TOL_DISPLACEMENT 1200
GEOM_OPT_TOL_ENERGY       100
SYMMETRY                  False
THRESH                    12
SCF_CONVERGENCE           8
MAX_SUB_FILE_NUM          128
MEM_STATIC                400
MEM_TOTAL                 4000
$end
