$molecule
0  1
O -3.94934 -3.66094 2.70899
C -3.26408 -4.56952 2.26188
C -3.36658 -6.02376 2.66595
C -2.05418 -6.7588 2.98404
C -0.80206 -5.91167 3.03528
O 0.16066 -6.4577 2.23499
C 1.36795 -5.68919 2.20192
C 1.30204 -4.65469 1.08318
O 2.40645 -3.74314 1.19382
C 3.16272 -3.87633 2.31162
C 4.31203 -2.89808 2.36442
C 4.74821 -2.33773 1.00279
C 3.77433 -2.545 -0.13971
O 3.39804 -1.67901 -0.91626
O -2.46866 -4.31134 1.19023
O 3.8371 -3.81071 -0.66352
O 3.5772 -4.93031 2.78723
C 3.30071 -4.18941 -1.87851
C 3.95154 -1.59935 3.11242
C 5.2239 -0.94651 3.64907
C 5.87286 -0.49468 2.35651
C 4.75783 -0.83406 1.35753
O 3.57185 -0.69864 2.10227
H 5.19209 -3.3543 2.88456
H 5.74349 -2.711 0.67387
H 3.21794 -1.75198 3.93423
H 4.90142 -0.04642 4.22062
H 5.86152 -1.58067 4.30188
H 6.04525 0.60273 2.4173
H 6.817 -1.01775 2.09044
H 4.84591 -0.18371 0.45971
O -0.69346 -4.89032 3.70712
C -2.30239 -3.0628 0.6279
C -4.1323 -6.22281 3.98764
C -4.65661 -7.65673 4.08257
C -3.37432 -8.40716 4.37231
C -2.37442 -7.24914 4.4096
O -3.1201 -6.19072 4.9628
H -3.89928 -6.52502 1.82701
H -1.88428 -7.62639 2.30485
H -1.87426 -2.36157 1.37587
H -4.97082 -5.50591 4.12431
H -5.31657 -7.72887 4.97639
H -5.21316 -7.99454 3.18188
H -3.45095 -8.85377 5.38904
H -3.10498 -9.19471 3.63586
H -1.46157 -7.54933 4.97078
H -3.27638 -2.67415 0.26127
H -1.60388 -3.14016 -0.2304
H 3.48289 -5.27231 -2.03464
H 3.78347 -3.62336 -2.70337
H 2.20587 -4.00292 -1.8902
H 1.30617 -5.16699 0.09884
H 0.37245 -4.05749 1.17175
H 2.16234 -6.42937 1.95394
H 1.49386 -5.3027 3.24251
$end

$opt
CONSTRAINT
tors           1           2           3           4    -132.873
tors           3           4           5           6    -128.156
tors           4           5           6           7    +178.367
tors           5           6           7           8     -89.509
tors           6           7           8           9    +170.323
tors           7           8           9          10      -7.357
tors           8           9          10          11    +179.578
tors           9          10          11          12     -22.337
tors          11          12          13          14    +131.043
ENDCONSTRAINT
$end

$rem
JOBTYPE                   OPT
METHOD                    B3LYP
DFT_D                     d3_op
BASIS                     STO-3G
GEOM_OPT_MAX_CYCLES       100
GEOM_OPT_TOL_GRADIENT     300
GEOM_OPT_TOL_DISPLACEMENT 1200
GEOM_OPT_TOL_ENERGY       100
SYMMETRY                  False
THRESH                    12
SCF_CONVERGENCE           8
MAX_SUB_FILE_NUM          128
MEM_STATIC                400
MEM_TOTAL                 4000
$end
