$molecule
0  1
O -3.94934 -3.66094 2.70899
C -3.26408 -4.56952 2.26188
C -3.36658 -6.02376 2.66595
C -3.63629 -7.04588 1.54953
C -3.59671 -6.52161 0.1312
O -3.52642 -5.15766 0.14248
C -4.47264 -4.55234 1.0299
C -5.70293 -5.4423 1.17304
O -5.91564 -5.76446 2.55646
C -7.13046 -5.4245 3.05422
C -7.15013 -5.35647 4.56275
C -7.83199 -6.54535 5.2555
C -8.06667 -7.7679 4.3912
O -7.19265 -8.47934 3.91738
O -2.00843 -4.20398 1.80806
O -9.3651 -8.12769 4.21321
O -8.15196 -5.33502 2.38411
C -9.7748 -9.22305 3.4822
C -5.81076 -5.34702 5.32868
C -5.99714 -4.72834 6.71742
C -6.76092 -5.82666 7.42298
C -6.78408 -6.89082 6.32514
O -5.56943 -6.69821 5.63677
H -7.644 -4.38625 4.79586
H -8.81716 -6.24685 5.6796
H -5.0162 -4.7761 4.81454
H -4.98803 -4.64769 7.18227
H -6.48302 -3.72901 6.72997
H -6.15523 -6.17868 8.28764
H -7.78422 -5.55381 7.76057
H -6.94501 -7.9004 6.76418
O -3.48788 -7.19559 -0.88142
C -1.57551 -2.91942 1.53331
C -1.9937 -6.54527 3.17247
C -2.16394 -7.79212 4.04339
C -2.52912 -8.81353 2.9936
C -2.40321 -7.96067 1.72659
O -1.37152 -7.05731 2.02417
H -3.98259 -6.14102 3.56407
H -4.54486 -7.67281 1.68863
H -0.70949 -2.68031 2.18372
H -1.41774 -5.77987 3.73907
H -1.16046 -8.0491 4.45256
H -2.88475 -7.69266 4.88325
H -1.75528 -9.61339 2.99843
H -3.53949 -9.26469 3.09924
H -2.22782 -8.62334 0.85028
H -2.36665 -2.15695 1.69462
H -1.2527 -2.86667 0.47326
H -10.88249 -9.27911 3.50056
H -9.36191 -10.15495 3.92432
H -9.43858 -9.12609 2.42765
H -6.57411 -4.84584 0.79212
H -5.88994 -6.31566 0.51097
H -4.88145 -4.00903 0.14097
H -4.73204 -3.45605 0.77937
$end

$opt
CONSTRAINT
tors           1           2           3           4    +123.158
tors           3           4           5           6      -9.474
tors           4           5           6           7     -47.368
tors           5           6           7           8     -28.421
tors           6           7           8           9    +123.158
tors           7           8           9          10    +123.158
tors           8           9          10          11    -161.053
tors           9          10          11          12    -104.211
tors          11          12          13          14     +66.316
ENDCONSTRAINT
$end

$rem
JOBTYPE                   OPT
METHOD                    B3LYP
DFT_D                     d3_op
BASIS                     STO-3G
GEOM_OPT_MAX_CYCLES       100
GEOM_OPT_TOL_GRADIENT     300
GEOM_OPT_TOL_DISPLACEMENT 1200
GEOM_OPT_TOL_ENERGY       100
SYMMETRY                  False
THRESH                    12
SCF_CONVERGENCE           8
MAX_SUB_FILE_NUM          128
MEM_STATIC                400
MEM_TOTAL                 4000
$end
