$molecule
0  1
O -3.94934 -3.66094 2.70899
C -3.26408 -4.56952 2.26188
C -3.36658 -6.02376 2.66595
C -2.05799 -6.828 2.73402
C -0.77528 -6.04461 2.5636
O -0.80578 -4.92782 3.34926
C -2.12776 -4.4168 3.55048
C -2.47725 -3.41652 2.45348
O -3.64028 -2.66292 2.83073
C -4.79644 -3.03335 2.2264
C -5.98079 -2.20483 2.66403
C -6.73154 -1.49726 1.5265
C -6.42709 -1.99099 0.12641
O -7.09116 -2.80574 -0.4979
O -3.12709 -4.79153 0.79005
O -5.35832 -1.41493 -0.48616
O -5.1481 -3.65054 1.07904
C -5.04086 -1.59719 -1.81713
C -7.1112 -3.04881 3.28573
C -7.95852 -2.16756 4.20303
C -8.65557 -1.29154 3.18274
C -8.16788 -1.94643 1.88388
O -7.99358 -3.3 2.22369
H -5.63036 -1.48635 3.44145
H -6.65223 -0.3879 1.53051
H -6.74085 -3.94023 3.83795
H -8.71529 -2.83065 4.68028
H -7.40349 -1.62011 4.99523
H -9.75415 -1.41696 3.30584
H -8.38706 -0.21327 3.2174
H -8.88754 -1.74174 1.06021
O 0.16376 -6.34456 1.84398
C -2.74055 -4.00443 -0.29147
C -4.0074 -6.46173 4.03155
C -4.55691 -7.88957 3.93957
C -3.26359 -8.68951 3.94266
C -2.23274 -7.5628 4.08606
O -2.91271 -6.65103 4.90432
H -4.06731 -6.48386 1.92663
H -2.00617 -7.59698 1.93043
H -1.6404 -3.85919 -0.2882
H -4.798 -5.75909 4.37313
H -5.10356 -8.10303 4.88603
H -5.23407 -8.07784 3.07928
H -3.24672 -9.32379 4.85729
H -3.09451 -9.3252 3.04717
H -1.26911 -7.95465 4.47746
H -3.24211 -3.02053 -0.28327
H -2.98915 -4.53963 -1.23035
H -4.11449 -1.03381 -2.05123
H -5.8635 -1.21574 -2.45896
H -4.87334 -2.67359 -2.03393
H -1.71107 -2.62051 2.7156
H -1.75521 -2.96517 1.68017
H -1.84464 -3.68269 4.35396
H -2.60129 -4.49164 4.5693
$end

$opt
CONSTRAINT
tors           1           2           3           4    -143.759
tors           3           4           5           6     +47.132
tors           4           5           6           7     -30.152
tors           5           6           7           8     -89.474
tors           6           7           8           9    -165.535
tors           7           8           9          10    -102.950
tors           8           9          10          11    -180.000
tors           9          10          11          12    +123.158
tors          11          12          13          14     +96.576
ENDCONSTRAINT
$end

$rem
JOBTYPE                   OPT
METHOD                    B3LYP
DFT_D                     d3_op
BASIS                     STO-3G
GEOM_OPT_MAX_CYCLES       100
GEOM_OPT_TOL_GRADIENT     300
GEOM_OPT_TOL_DISPLACEMENT 1200
GEOM_OPT_TOL_ENERGY       100
SYMMETRY                  False
THRESH                    12
SCF_CONVERGENCE           8
MAX_SUB_FILE_NUM          128
MEM_STATIC                400
MEM_TOTAL                 4000
$end
