$molecule
0  1
O -3.94934 -3.66094 2.70899
C -3.26408 -4.56952 2.26188
C -3.36658 -6.02376 2.66595
C -3.47804 -6.3293 4.16864
C -3.65351 -5.1405 5.08737
O -3.80558 -4.00174 4.34877
C -5.13206 -3.46653 4.40572
C -6.05546 -4.42807 5.14661
O -7.42644 -4.0952 4.87739
C -8.2778 -4.23995 5.92304
C -9.69732 -3.8517 5.58411
C -10.76955 -4.44762 6.50794
C -10.267 -5.03131 7.81311
O -10.28018 -6.21692 8.11098
O -2.24547 -4.25613 1.41767
O -9.73634 -4.15425 8.71196
O -7.93231 -4.85484 6.92284
C -9.23427 -4.50827 9.94697
C -10.01233 -2.35063 5.7101
C -11.19622 -2.00474 4.80764
C -12.32968 -2.69507 5.54587
C -11.58967 -3.17854 6.79978
O -10.58157 -2.21128 6.99031
H -9.87395 -4.18318 4.53437
H -11.33899 -5.25304 5.99267
H -9.14099 -1.69831 5.48362
H -11.34372 -0.90319 4.88087
H -11.08695 -2.28623 3.73821
H -13.09609 -1.93109 5.80398
H -12.80164 -3.54364 5.00467
H -12.29566 -3.32454 7.64688
O -3.60021 -5.17891 6.30929
C -1.96611 -2.97933 0.97728
C -4.58925 -6.788 2.12371
C -4.25724 -8.27801 2.01653
C -4.1984 -8.66281 3.4856
C -4.63836 -7.344 4.1369
O -5.51195 -6.79194 3.17549
H -2.47098 -6.51504 2.21918
H -2.53488 -6.80241 4.52206
H -1.72924 -2.3201 1.8397
H -4.9539 -6.39529 1.14975
H -5.14185 -8.77344 1.55534
H -3.35222 -8.53138 1.42356
H -4.94957 -9.4632 3.66723
H -3.20091 -8.98863 3.85205
H -5.05639 -7.53011 5.15018
H -2.83433 -2.56928 0.41828
H -1.08793 -3.01182 0.30038
H -8.86926 -3.59803 10.46522
H -8.38635 -5.21605 9.82741
H -10.03094 -4.97653 10.56354
H -6.02827 -5.4571 4.84777
H -5.80713 -4.37368 6.23042
H -5.77389 -3.25887 3.49408
H -5.11243 -2.4868 4.93028
$end

$opt
CONSTRAINT
tors           1           2           3           4     -44.791
tors           3           4           5           6      +5.755
tors           4           5           6           7    +109.725
tors           5           6           7           8      -7.062
tors           6           7           8           9    -163.511
tors           7           8           9          10    -142.723
tors           8           9          10          11    +178.981
tors           9          10          11          12    +158.937
tors          11          12          13          14    -112.250
ENDCONSTRAINT
$end

$rem
JOBTYPE                   OPT
METHOD                    B3LYP
DFT_D                     d3_op
BASIS                     STO-3G
GEOM_OPT_MAX_CYCLES       100
GEOM_OPT_TOL_GRADIENT     300
GEOM_OPT_TOL_DISPLACEMENT 1200
GEOM_OPT_TOL_ENERGY       100
SYMMETRY                  False
THRESH                    12
SCF_CONVERGENCE           8
MAX_SUB_FILE_NUM          128
MEM_STATIC                400
MEM_TOTAL                 4000
$end
