$molecule
0  1
O -3.94934 -3.66094 2.70899
C -3.26408 -4.56952 2.26188
C -3.36658 -6.02376 2.66595
C -4.60708 -6.44342 3.47149
C -5.69221 -5.40164 3.63039
O -6.33421 -5.21498 2.43941
C -7.49114 -4.37897 2.54829
C -7.93577 -3.91414 1.16541
O -7.14069 -2.79372 0.74662
C -7.49874 -1.5958 1.27191
C -6.57696 -0.47311 0.85894
C -7.2016 0.92888 0.90892
C -8.49801 1.0474 1.6848
O -9.41921 0.24433 1.65272
O -2.26116 -4.25948 1.39879
O -8.60437 2.08525 2.5598
O -8.06717 -1.5599 2.35641
C -9.69448 2.31633 3.37294
C -5.36552 -0.27919 1.79395
C -4.22513 0.36645 1.01217
C -4.79181 1.75453 0.78834
C -6.06517 1.67414 1.64372
O -5.73979 0.76175 2.66384
H -6.20124 -0.71611 -0.16235
H -7.41577 1.30599 -0.11474
H -5.02342 -1.22004 2.27552
H -3.36354 0.43945 1.71451
H -3.89821 -0.16398 0.09218
H -4.06924 2.49582 1.19582
H -5.04157 2.00066 -0.26658
H -6.35415 2.69529 1.97303
O -6.07067 -4.97506 4.71523
C -2.00885 -2.98697 0.92945
C -3.52148 -6.97155 1.45163
C -3.0289 -8.37056 1.82215
C -4.13615 -8.82398 2.75243
C -5.09904 -7.63758 2.63336
O -4.90665 -7.17703 1.31804
H -2.41083 -6.27004 3.18104
H -4.31402 -6.74544 4.502
H -1.77409 -2.30507 1.77467
H -2.99342 -6.61461 0.54073
H -3.07318 -8.98658 0.89523
H -2.00206 -8.42125 2.24382
H -4.59459 -9.7459 2.33065
H -3.82924 -8.99909 3.80632
H -6.13488 -7.93972 2.9035
H -2.89113 -2.60393 0.37319
H -1.13878 -3.01804 0.24221
H -9.51009 3.22762 3.9779
H -9.8491 1.45645 4.05925
H -10.605 2.47414 2.75621
H -7.85023 -4.75214 0.44132
H -9.01036 -3.61736 1.1854
H -7.34885 -3.5362 3.25319
H -8.30159 -5.0181 2.96355
$end

$opt
CONSTRAINT
tors           1           2           3           4     +13.489
tors           3           4           5           6     +71.553
tors           4           5           6           7    +172.025
tors           5           6           7           8    +165.029
tors           6           7           8           9     -81.436
tors           7           8           9          10     -79.716
tors           8           9          10          11    +176.592
tors           9          10          11          12    +155.873
tors          11          12          13          14     -41.770
ENDCONSTRAINT
$end

$rem
JOBTYPE                   OPT
METHOD                    B3LYP
DFT_D                     d3_op
BASIS                     STO-3G
GEOM_OPT_MAX_CYCLES       100
GEOM_OPT_TOL_GRADIENT     300
GEOM_OPT_TOL_DISPLACEMENT 1200
GEOM_OPT_TOL_ENERGY       100
SYMMETRY                  False
THRESH                    12
SCF_CONVERGENCE           8
MAX_SUB_FILE_NUM          128
MEM_STATIC                400
MEM_TOTAL                 4000
$end
