$molecule
0  1
O -1.2486572637 -0.9312630269 0.6923478195
C -2.3029674528 -1.4078532818 0.2121505321
C -3.7854030384 -0.9534174539 0.4766119044
C -3.9357639893 0.5032034472 1.0842904964
C -2.5795335457 1.2515558837 1.3232230321
O -2.0193115247 1.6001774227 0.0534954889
C -0.7508208159 2.3358095852 0.2510200241
C 0.0024510288 2.3150633823 -1.1228893139
O 0.6191630208 0.9812998954 -1.3330912161
C 1.8402268578 0.8843418816 -0.5914832858
C 2.414730785 -0.5576968323 -0.8016470518
C 3.972458203 -0.6612331497 -0.563279131
C 4.7471653564 0.7019524512 -0.6702117274
O 4.5065858208 1.6489775288 -1.4494227995
O -2.3482812996 -2.4997978838 -0.7072130751
O 5.840976324 0.6894454877 0.2541018884
O 2.2853420746 1.7866300568 0.1498866751
C 6.5904526789 1.9630661971 0.1635870945
C 1.8786898909 -1.4387491799 0.4144702813
C 2.2974500775 -2.9488778655 0.1978754182
C 3.8152138459 -2.920247495 0.6109128663
C 4.0205336355 -1.3760134497 0.8573267293
O 2.7546422824 -0.9794287761 1.5181128136
H 2.1012653782 -0.9439521159 -1.7871401144
H 4.4140689204 -1.3289014877 -1.3275212328
H 0.8030047414 -1.2703147606 0.6506299466
H 1.7121756016 -3.6106285331 0.8560229178
H 2.1510774265 -3.2721073151 -0.8452573871
H 3.9887568006 -3.4833371008 1.5420305622
H 4.4807600797 -3.3157683276 -0.1729399983
H 4.8933760118 -1.0947019892 1.476514364
O -2.0803355642 1.5583629327 2.4275068375
C -0.9829206871 -2.9550888475 -1.0499692076
C -4.6180925012 -0.8091396765 -0.8708955963
C -6.154461122 -0.7885865622 -0.5044750657
C -6.3028087119 0.6583915358 0.0961824001
C -4.82331295 1.197340797 -0.0375123486
O -4.342254513 0.5812778131 -1.2948529801
H -4.2481991485 -1.7059508879 1.1423538209
H -4.4632494261 0.4666483066 2.0532786031
H -0.4644517891 -3.3842988181 -0.1696095028
H -4.3207342795 -1.5283216833 -1.6582407047
H -6.7673342756 -0.9161311849 -1.4109517384
H -6.4199078879 -1.5784062966 0.2163764868
H -6.9920514487 1.275498047 -0.5020471658
H -6.6500887475 0.6530060186 1.1417524097
H -4.7249795774 2.2989728716 -0.0840124224
H -0.3696860596 -2.1257453472 -1.4568890084
H -1.1075151488 -3.7380910449 -1.820401077
H 7.4099824903 1.8879497194 0.9018607885
H 5.9460877137 2.8315681212 0.4098625509
H 7.0157203906 2.1166417719 -0.8493885354
H -0.7153312286 2.4599993545 -1.9549454228
H 0.7749777303 3.1135129876 -1.1375044363
H -0.1310620439 1.8642416794 1.0427618966
H -0.9582847343 3.3858533312 0.5572594866
$end

$rem
JOBTYPE                   OPT
METHOD                    B3LYP
DFT_D                     d3_op
BASIS                     STO-3G
GEOM_OPT_MAX_CYCLES       100
GEOM_OPT_TOL_GRADIENT     300
GEOM_OPT_TOL_DISPLACEMENT 1200
GEOM_OPT_TOL_ENERGY       100
SYMMETRY                  False
THRESH                    12
SCF_CONVERGENCE           8
MAX_SUB_FILE_NUM          128
MEM_STATIC                400
MEM_TOTAL                 4000
$end
