$molecule
0  1
O -3.94934 -3.66094 2.70899
C -3.26408 -4.56952 2.26188
C -3.36658 -6.02376 2.66595
C -3.65112 -7.04423 1.55171
C -3.62502 -6.51899 0.13342
O -4.52818 -7.20141 -0.63079
C -4.83646 -6.5408 -1.86278
C -5.18472 -7.56654 -2.93642
O -5.06033 -6.97349 -4.2386
C -4.49605 -7.76183 -5.18689
C -4.39342 -7.0827 -6.53184
C -3.09972 -6.28681 -6.75808
C -1.97099 -6.57066 -5.78747
O -0.87056 -6.03837 -5.8048
O -2.22586 -4.22693 1.45373
O -2.09492 -7.50728 -4.80906
O -4.37914 -8.97741 -5.06592
C -1.13904 -7.82871 -3.86506
C -4.29661 -8.06069 -7.73108
C -4.76992 -7.36095 -9.0051
C -3.63414 -6.38384 -9.22974
C -2.66853 -6.83097 -8.12636
O -2.91971 -8.20689 -7.97908
H -5.32253 -6.48533 -6.67733
H -3.28271 -5.19059 -6.72702
H -4.87074 -9.00173 -7.58627
H -4.74522 -8.125 -9.81541
H -5.78407 -6.90852 -8.96581
H -3.20686 -6.56812 -10.24028
H -3.90129 -5.31075 -9.11547
H -1.62278 -6.55108 -8.38316
O -2.69809 -5.87827 -0.34455
C -1.94532 -2.94161 1.03828
C -2.03082 -6.55389 3.21429
C -2.26984 -7.7939 4.0763
C -2.58838 -8.81976 3.00926
C -2.43027 -7.96821 1.7465
O -1.39111 -7.07899 2.07835
H -4.15001 -6.07355 3.45568
H -4.59582 -7.61217 1.71607
H -1.73931 -2.29162 1.91537
H -1.46462 -5.78715 3.78779
H -1.30455 -8.07165 4.55663
H -3.04882 -7.66219 4.85789
H -1.79624 -9.6015 3.02685
H -3.58921 -9.29644 3.08849
H -2.24891 -8.62227 0.86453
H -2.80018 -2.53268 0.45837
H -1.0474 -2.95831 0.38723
H -1.53683 -8.62577 -3.20392
H -0.90046 -6.93837 -3.2449
H -0.21863 -8.20184 -4.36261
H -4.46179 -8.40514 -2.80314
H -6.2111 -7.95562 -2.76671
H -3.93605 -6.02961 -2.27456
H -5.63676 -5.77993 -1.73886
$end

$opt
CONSTRAINT
tors           1           2           3           4    +122.526
tors           3           4           5           6    -147.250
tors           4           5           6           7    +163.670
tors           5           6           7           8    +149.725
tors           6           7           8           9    -161.052
tors           7           8           9          10    +139.109
tors           8           9          10          11    -180.000
tors           9          10          11          12     +89.180
tors          11          12          13          14    -179.919
ENDCONSTRAINT
$end

$rem
JOBTYPE                   OPT
METHOD                    B3LYP
DFT_D                     d3_op
BASIS                     STO-3G
GEOM_OPT_MAX_CYCLES       100
GEOM_OPT_TOL_GRADIENT     300
GEOM_OPT_TOL_DISPLACEMENT 1200
GEOM_OPT_TOL_ENERGY       100
SYMMETRY                  False
THRESH                    12
SCF_CONVERGENCE           8
MAX_SUB_FILE_NUM          128
MEM_STATIC                400
MEM_TOTAL                 4000
$end
