$molecule
0  1
O -3.94934 -3.66094 2.70899
C -3.26408 -4.56952 2.26188
C -3.36658 -6.02376 2.66595
C -4.61263 -6.44577 3.46164
C -5.70136 -5.40635 3.61112
O -6.2846 -5.51887 4.84099
C -7.3292 -4.56449 5.05829
C -8.58114 -4.97094 4.28785
O -9.18893 -3.81229 3.69539
C -9.04111 -3.69879 2.35211
C -9.71897 -2.47327 1.78706
C -8.82484 -1.22912 1.68277
C -7.33474 -1.47362 1.81132
O -6.54722 -0.75372 2.40808
O -2.21588 -4.26615 1.44964
O -6.82164 -2.41579 0.97691
O -8.68893 -4.61925 1.62321
C -5.58315 -2.31205 0.38359
C -10.16635 -2.60947 0.31051
C -11.29535 -1.61996 0.02063
C -10.53624 -0.30915 0.05248
C -9.10399 -0.82883 0.22059
O -9.1103 -2.06988 -0.4415
H -10.64253 -2.30321 2.38669
H -9.10023 -0.42512 2.40041
H -10.48732 -3.63843 0.03778
H -11.63004 -1.81044 -1.02458
H -12.17399 -1.67611 0.69859
H -10.66417 0.19442 -0.93137
H -10.81588 0.38289 0.87621
H -8.3696 -0.08175 -0.15471
O -6.18699 -4.79399 2.66749
C -1.88422 -2.99998 1.01723
C -3.52691 -6.92283 1.42007
C -3.10485 -8.35496 1.74827
C -4.27055 -8.80106 2.60294
C -5.15448 -7.55259 2.53657
O -4.9161 -7.03941 1.25042
H -2.4159 -6.28076 3.18439
H -4.36091 -6.86428 4.46315
H -1.69166 -2.33449 1.8856
H -2.95949 -6.55904 0.53562
H -3.12005 -8.93789 0.79953
H -2.10357 -8.44652 2.22152
H -4.77786 -9.64902 2.09081
H -4.01544 -9.08727 3.64616
H -6.21072 -7.81763 2.76708
H -2.69339 -2.58297 0.38646
H -0.96337 -3.05869 0.40166
H -5.35621 -3.24916 -0.16497
H -4.80552 -2.11352 1.13971
H -5.58576 -1.46545 -0.33524
H -8.32422 -5.75644 3.54561
H -9.29958 -5.49376 4.95412
H -6.97165 -3.55335 4.74968
H -7.57485 -4.48533 6.13838
$end

$opt
CONSTRAINT
tors           1           2           3           4     +13.972
tors           3           4           5           6    -144.252
tors           4           5           6           7    +179.997
tors           5           6           7           8     +75.371
tors           6           7           8           9    -139.049
tors           7           8           9          10    +106.570
tors           8           9          10          11    +179.126
tors           9          10          11          12     +92.355
tors          11          12          13          14    -140.551
ENDCONSTRAINT
$end

$rem
JOBTYPE                   OPT
METHOD                    B3LYP
DFT_D                     d3_op
BASIS                     STO-3G
GEOM_OPT_MAX_CYCLES       100
GEOM_OPT_TOL_GRADIENT     300
GEOM_OPT_TOL_DISPLACEMENT 1200
GEOM_OPT_TOL_ENERGY       100
SYMMETRY                  False
THRESH                    12
SCF_CONVERGENCE           8
MAX_SUB_FILE_NUM          128
MEM_STATIC                400
MEM_TOTAL                 4000
$end
