$molecule
0  1
O 1.9109683764 1.0755295165 2.2487363369
C 2.5160856982 1.4857595827 1.2344178091
C 3.4615596031 0.6328968364 0.3107964254
C 3.0947483618 -0.9057516789 0.256437875
C 1.6491394478 -1.2732007433 0.7504863781
O 1.735228517 -2.5752376621 1.3398209421
C 0.4223389198 -3.0210241057 1.8558939473
C -0.6959302257 -3.2998133988 0.7713627719
O -1.8296929908 -2.3580337855 0.8818506513
C -2.0244572434 -1.6287295952 -0.3468992281
C -3.24957826 -0.6845681741 -0.0939379604
C -2.9766682077 0.6674884424 0.6798875182
C -1.5543598782 1.2980128528 0.4448160147
O -0.9896241272 2.1251413599 1.199415811
O 2.4782439789 2.8304671482 0.7614200629
O -1.1366507862 0.9229135758 -0.8545118752
O -1.3705149748 -1.8325532331 -1.3908291712
C 0.0958258607 1.6185460907 -1.2890145558
C -4.0581680079 -0.1739627059 -1.3658261388
C -5.5683986631 -0.0808619049 -0.9169825709
C -5.484772009 1.1143115249 0.1059713935
C -3.9962094305 1.6095633731 -0.1085882365
O -3.6970881001 1.2548204191 -1.5154954951
H -3.9301245501 -1.2876800734 0.5354766353
H -3.1864452149 0.5947377267 1.7607905088
H -3.8563825217 -0.7280988853 -2.3029824743
H -6.2076182246 0.174233393 -1.7776864429
H -5.9393268012 -1.0129062598 -0.4616677856
H -6.199498437 1.9147395752 -0.1419849785
H -5.6625695074 0.7930670531 1.1450775898
H -3.8353257529 2.691993314 0.0621359481
O 0.5823637733 -0.6403667237 0.6130678381
C 1.5475278037 3.6252310971 1.6061986297
C 3.4869733716 1.017299083 -1.2282509223
C 4.8556567558 0.5185066252 -1.8285080214
C 4.6332207298 -1.0407243546 -1.8251348991
C 3.1411002516 -1.1443120145 -1.3173078305
O 2.5092834577 0.0890879132 -1.8473829005
H 4.4813109531 0.7437754337 0.7261950625
H 3.8226110738 -1.5349418145 0.7962381223
H 1.8990967529 3.6708966406 2.6563414961
H 3.2155644732 2.0694171179 -1.4381144762
H 4.9864711269 0.9026195776 -2.852798555
H 5.7192723697 0.829762286 -1.2196527859
H 4.7276591635 -1.466083484 -2.8367780929
H 5.3301640499 -1.5678201878 -1.1539761528
H 2.5866902514 -2.0387823838 -1.6622270737
H 0.5260187987 3.1763926653 1.5698335746
H 1.5438093907 4.6414202996 1.1721556488
H -0.1416366297 2.1603184641 -2.2253182063
H 0.8995923735 0.8660392772 -1.4790474946
H 0.4310570037 2.3369120793 -0.5194950639
H -0.2777582343 -3.2312925007 -0.2585430453
H -1.0985413542 -4.3233728082 0.9252917772
H 0.0213087703 -2.2792889332 2.5827352239
H 0.6495140012 -3.9602393798 2.398269757
$end

$rem
JOBTYPE                   OPT
METHOD                    B3LYP
DFT_D                     d3_op
BASIS                     STO-3G
GEOM_OPT_MAX_CYCLES       100
GEOM_OPT_TOL_GRADIENT     300
GEOM_OPT_TOL_DISPLACEMENT 1200
GEOM_OPT_TOL_ENERGY       100
SYMMETRY                  False
THRESH                    12
SCF_CONVERGENCE           8
MAX_SUB_FILE_NUM          128
MEM_STATIC                400
MEM_TOTAL                 4000
$end
