$molecule
0  1
O 6.2923569079 0.7147040936 -0.4301672546
C 5.0989318132 0.704863223 -0.060485888
C 4.3707190785 -0.4302112319 0.7418595347
C 2.7842555802 -0.4197010164 0.6824752869
C 2.2280446992 0.4100951817 -0.5557690328
O 1.321172248 1.499343422 -0.269031185
C -0.0128722586 1.2095017885 0.295719167
C -0.5482881092 -0.268419334 0.3844576769
O -1.1855553097 -0.6560722468 -0.8959377637
C -2.361657994 -1.4755158845 -0.7200923891
C -3.7296361175 -1.0054391719 -0.0509570133
C -4.0242379279 0.3422783808 0.7294628066
C -3.1043768355 1.5758581625 0.4751840474
O -2.7252900457 2.0479471294 -0.6202506902
O 4.2187585472 1.8301777098 -0.1568449702
O -2.8561987343 2.1928487565 1.7484821806
O -2.3740415375 -2.5822696329 -1.3085227653
C -2.2109992599 3.5168678572 1.579153881
C -4.9108302003 -0.9960508002 -1.1386477096
C -6.2063870129 -1.5468272544 -0.4273538022
C -6.5240305142 -0.3583449968 0.5533915283
C -5.4472446741 0.709098001 0.1051856941
O -5.228477779 0.4344465131 -1.3314758184
H -3.9461236111 -1.8266372428 0.6586347862
H -4.0760323452 0.170764114 1.8189842117
H -4.6506606166 -1.4797197644 -2.0999250918
H -7.0138034876 -1.6847160501 -1.1643858917
H -6.0310437001 -2.5022096309 0.0921406884
H -7.5420292922 0.0344776888 0.4040952263
H -6.4067286624 -0.637985387 1.612668282
H -5.7456838315 1.7646988839 0.2575502406
O 2.6096306994 0.2219906038 -1.7301268527
C 4.8473635673 2.9194822897 -0.9364425962
C 4.7249200797 -1.8993194847 0.2630652202
C 4.533908162 -2.8558616315 1.5026257438
C 2.9665658341 -2.8292500366 1.6497198915
C 2.5489713294 -1.9752714007 0.3846453023
O 3.5963214754 -2.2711460026 -0.6169644602
H 4.6912585198 -0.3022217074 1.7938965347
H 2.3322795663 -0.0751293534 1.6278449413
H 5.0528484667 2.6015335415 -1.9787928823
H 5.6910197597 -1.98376489 -0.2718723958
H 4.8976659685 -3.8684334077 1.264963211
H 5.0563909582 -2.4925419467 2.4018840695
H 2.5349795015 -3.840965036 1.5933266164
H 2.6387335847 -2.3577034535 2.5901497806
H 1.5593081092 -2.2297836206 -0.0402661162
H 5.7971951096 3.2555198257 -0.4724759648
H 4.1170586761 3.7493044491 -0.940419329
H -2.8811628444 4.2932839726 1.998001583
H -2.030167027 3.7112242978 0.5030137165
H -1.2517287416 3.5276569192 2.1317034295
H 0.2587758856 -0.9853136108 0.629449136
H -1.2793343435 -0.2993231241 1.2214837161
H -0.7419469867 1.7847487835 -0.3178812778
H -0.0378130661 1.6192716464 1.3317320977
$end

$rem
JOBTYPE                   OPT
METHOD                    B3LYP
DFT_D                     d3_op
BASIS                     STO-3G
GEOM_OPT_MAX_CYCLES       100
GEOM_OPT_TOL_GRADIENT     300
GEOM_OPT_TOL_DISPLACEMENT 1200
GEOM_OPT_TOL_ENERGY       100
SYMMETRY                  False
THRESH                    12
SCF_CONVERGENCE           8
MAX_SUB_FILE_NUM          128
MEM_STATIC                400
MEM_TOTAL                 4000
$end
