$molecule
0  1
O -3.94934 -3.66094 2.70899
C -3.26408 -4.56952 2.26188
C -3.36658 -6.02376 2.66595
C -2.40867 -7.01244 1.98128
C -1.33566 -6.41165 1.10049
O -0.17315 -7.11483 1.2402
C -0.10381 -8.26322 0.38835
C -0.93009 -8.03288 -0.87274
O -0.06194 -7.75522 -1.98274
C -0.61228 -7.926 -3.21038
C -1.35511 -9.23392 -3.34539
C -1.94481 -9.78144 -2.03743
C -2.02148 -8.7999 -0.8853
O -1.27163 -7.84996 -0.71234
O -2.31699 -4.06623 1.44409
O -2.71992 -9.3677 0.1912
O -0.16192 -7.34192 -4.18305
C -4.09614 -9.49848 0.34853
C -2.58232 -9.16101 -4.26656
C -2.85832 -10.54985 -4.83965
C -3.33616 -11.26576 -3.60089
C -3.36289 -10.10015 -2.6044
O -3.65831 -8.97518 -3.39066
H -0.61991 -9.94052 -3.79377
H -1.46128 -10.72031 -1.6807
H -2.48241 -8.41928 -5.08818
H -3.71282 -10.45092 -5.54666
H -2.00631 -11.03813 -5.35968
H -4.36532 -11.64542 -3.79468
H -2.68991 -12.09345 -3.23643
H -4.13139 -10.37509 -1.88076
O -1.53535 -5.69571 0.11914
C -2.239 -2.76805 0.96334
C -3.00653 -6.2199 4.14893
C -3.68522 -7.48493 4.67107
C -2.82593 -8.54296 4.01936
C -1.81857 -7.67486 3.26555
O -1.64651 -6.57439 4.12442
H -4.43231 -6.30114 2.49235
H -3.03163 -7.57438 1.34532
H -2.07847 -2.05455 1.79767
H -3.27779 -5.34854 4.78476
H -3.54516 -7.53866 5.77452
H -4.76876 -7.54133 4.43164
H -2.27702 -9.07758 4.82888
H -3.35323 -9.28609 3.39075
H -0.91201 -8.29114 3.10261
H -3.17314 -2.5084 0.41807
H -1.39077 -2.69388 0.25271
H -4.38933 -10.56497 0.27916
H -4.6463 -8.85511 -0.37137
H -4.40556 -9.1832 1.36356
H 0.02088 -9.16992 -1.09635
H 0.23381 -6.92727 -0.98268
H -0.40025 -9.15788 1.01022
H 1.02779 -8.40701 0.32818
$end

$opt
CONSTRAINT
tors           1           2           3           4    -180.000
tors           3           4           5           6    +142.105
tors           4           5           6           7     +85.263
tors           5           6           7           8     +28.421
tors           6           7           8           9    +104.211
tors           7           8           9          10    +161.053
tors           8           9          10          11     -47.368
tors           9          10          11          12     +28.421
tors          11          12          13          14     -28.421
ENDCONSTRAINT
$end

$rem
JOBTYPE                   OPT
METHOD                    B3LYP
DFT_D                     d3_op
BASIS                     STO-3G
GEOM_OPT_MAX_CYCLES       100
GEOM_OPT_TOL_GRADIENT     300
GEOM_OPT_TOL_DISPLACEMENT 1200
GEOM_OPT_TOL_ENERGY       100
SYMMETRY                  False
THRESH                    12
SCF_CONVERGENCE           8
MAX_SUB_FILE_NUM          128
MEM_STATIC                400
MEM_TOTAL                 4000
$end
