$molecule
0  1
O -4.7543493738 1.391993425 0.1162114534
C -4.0689843068 0.7737342879 -0.7250317253
C -3.4128160179 -0.6482277978 -0.5694230407
C -1.8323333073 -0.6282460411 -0.4644372764
C -1.2340142856 0.8056434878 -0.3083067243
O 0.1774057248 0.6893557163 -0.059153779
C 0.8498955447 1.9667421045 -0.360062829
C 1.6687068122 2.1082862824 -1.6863190583
O 3.0561634605 1.632465279 -1.8194000925
C 3.8579602851 1.2953393667 -0.6705184086
C 3.6390670322 -0.1638588579 -0.0495557592
C 2.6261477416 -0.7104680016 1.0497288493
C 1.6998610079 0.1827210292 1.9399555585
O 0.7476874657 -0.2512579935 2.6296417077
O -3.8863854643 1.1884008075 -2.0881673348
O 2.2384629856 1.5110976449 2.0749568948
O 4.8744063309 1.9740812027 -0.4071717888
C 1.4766903606 2.2685879774 3.1018816709
C 3.2656303017 -1.1377017155 -1.2656924558
C 3.8072802129 -2.5896561358 -0.9613651978
C 2.7497726309 -3.0912156125 0.0885673095
C 1.8309712693 -1.8143708713 0.2195910464
O 1.7976210783 -1.2743175129 -1.1537791416
H 4.6529422806 -0.4096284241 0.3170150772
H 3.2534150483 -1.2290806424 1.8017877539
H 3.535225073 -0.7308352188 -2.2590116028
H 3.7949021404 -3.2047466354 -1.8750056763
H 4.8330462824 -2.5722113061 -0.5601926213
H 2.166597799 -3.9408326678 -0.3008594427
H 3.2016601281 -3.3847118882 1.0492820085
H 0.8125277961 -2.0148165529 0.5921094441
O -1.8383889217 1.8986625119 -0.3858415608
C -4.444881641 2.5447174967 -2.2760037181
C -3.8198321393 -1.3524723469 0.7861415066
C -3.5219512365 -2.8978028987 0.6548907277
C -1.9492098535 -2.9119123035 0.7421657763
C -1.6419972756 -1.3764043695 0.9426915982
O -2.788237997 -0.8843782263 1.7357629126
H -3.7211653725 -1.2493659802 -1.4444031529
H -1.3281438754 -1.1492159342 -1.2975652151
H -3.89282842 3.2922272701 -1.670065754
H -4.8313893657 -1.0844245266 1.1482094678
H -3.9757603273 -3.4482372376 1.4944884916
H -3.9007049558 -3.3190169587 -0.2900940424
H -1.5963918654 -3.4940561065 1.6082822656
H -1.477439812 -3.3131263921 -0.1693194713
H -0.7012664842 -1.1219264295 1.4793750415
H -5.5181025877 2.5890885812 -1.9989089714
H -4.3285145826 2.7802437053 -3.3499817095
H 0.9947746617 3.1438781786 2.6249578976
H 2.185617526 2.6134520083 3.8788103498
H 0.7069282737 1.6040904677 3.5433736255
H 1.1088183563 1.6340627481 -2.5237826216
H 1.6917342781 3.2054654216 -1.887449705
H 1.5337987268 2.1521195027 0.4981259953
H 0.0642615439 2.753191302 -0.3826579562
$end

$rem
JOBTYPE                   OPT
METHOD                    B3LYP
DFT_D                     d3_op
BASIS                     STO-3G
GEOM_OPT_MAX_CYCLES       100
GEOM_OPT_TOL_GRADIENT     300
GEOM_OPT_TOL_DISPLACEMENT 1200
GEOM_OPT_TOL_ENERGY       100
SYMMETRY                  False
THRESH                    12
SCF_CONVERGENCE           8
MAX_SUB_FILE_NUM          128
MEM_STATIC                400
MEM_TOTAL                 4000
$end
