$molecule
0  1
O -3.94934 -3.66094 2.70899
C -3.26408 -4.56952 2.26188
C -3.36658 -6.02376 2.66595
C -4.51896 -6.41205 3.60675
C -5.54409 -5.33815 3.89646
O -6.72561 -5.913 4.26924
C -7.35297 -5.24738 5.37044
C -6.94973 -5.90968 6.68379
O -7.29128 -5.05625 7.78736
C -7.0707 -5.57927 9.019
C -5.65152 -5.38236 9.4963
C -5.30718 -6.09259 10.8136
C -6.28488 -7.15915 11.26444
O -6.15695 -7.86515 12.25427
O -2.28962 -4.26909 1.36306
O -7.21577 -7.64411 10.39533
O -7.96575 -5.37304 9.82875
C -8.08887 -8.68708 10.63887
C -4.37002 -5.76329 8.69782
C -3.15198 -4.97823 9.22094
C -2.85408 -5.71092 10.50278
C -3.96237 -6.75218 10.47529
O -4.09024 -7.07602 9.10986
H -5.59074 -4.2794 9.64135
H -5.24384 -5.37748 11.66415
H -4.33975 -5.53956 7.62757
H -2.2904 -5.13539 8.53171
H -3.33274 -3.88667 9.32727
H -1.87572 -6.23212 10.39858
H -2.85185 -5.08525 11.42154
H -3.7066 -7.59535 11.15462
O -5.14596 -4.3569 4.51884
C -2.03476 -2.99983 0.88768
C -3.66423 -6.91585 1.4455
C -3.20351 -8.34438 1.72201
C -4.24702 -8.78228 2.72316
C -5.14819 -7.54187 2.74547
O -5.06242 -7.03506 1.43859
H -2.37489 -6.29481 3.09282
H -4.17248 -6.81321 4.58578
H -1.75697 -2.3255 1.72582
H -3.2036 -6.54825 0.5024
H -3.34596 -8.92653 0.78326
H -2.14915 -8.44199 2.05929
H -4.79628 -9.6513 2.29649
H -3.86189 -9.03724 3.73414
H -6.16254 -7.85358 3.07268
H -2.92999 -2.60052 0.36468
H -1.19083 -3.04321 0.16909
H -8.72781 -8.84092 9.74533
H -8.73915 -8.44511 11.50651
H -7.5244 -9.62275 10.83891
H -7.46524 -6.89324 6.75921
H -5.89427 -6.13071 6.61512
H -8.45647 -5.31099 5.26265
H -7.16801 -4.14959 5.40385
$end

$opt
CONSTRAINT
tors           1           2           3           4      +6.595
tors           3           4           5           6    +156.193
tors           4           5           6           7    +137.823
tors           5           6           7           8     -93.555
tors           6           7           8           9    +165.418
tors           7           8           9          10    +175.356
tors           8           9          10          11     +85.124
tors           9          10          11          12    -173.417
tors          11          12          13          14    +177.066
ENDCONSTRAINT
$end

$rem
JOBTYPE                   OPT
METHOD                    B3LYP
DFT_D                     d3_op
BASIS                     STO-3G
GEOM_OPT_MAX_CYCLES       100
GEOM_OPT_TOL_GRADIENT     300
GEOM_OPT_TOL_DISPLACEMENT 1200
GEOM_OPT_TOL_ENERGY       100
SYMMETRY                  False
THRESH                    12
SCF_CONVERGENCE           8
MAX_SUB_FILE_NUM          128
MEM_STATIC                400
MEM_TOTAL                 4000
$end
