$molecule
0  1
O -3.3381053316 -1.7664738647 -0.2613955224
C -3.6729494881 -0.7431569483 -0.8987103137
C -3.9943613514 0.6878602637 -0.3224864581
C -3.2044339484 0.9665757633 1.0235912082
C -3.1308554022 -0.3489238968 1.9413460625
O -1.9805544427 -0.7299270211 2.7268591997
C -0.6737046806 -0.6840327161 2.0460289928
C -0.5475716594 -1.7472972108 0.8894379366
O 0.8849504249 -1.9579689456 0.5734948169
C 1.315375841 -0.9592576376 -0.3667092592
C 2.8310860225 -1.1833357224 -0.7000659641
C 3.705632456 0.1247208505 -0.8815921068
C 3.1809444892 1.3833205416 -0.0803655035
O 2.0179118643 1.6772405625 0.2659534798
O -3.8794504755 -0.7351235823 -2.3133024405
O 4.3013769032 2.2498738324 0.150933524
O 0.5365987542 -0.1579971635 -0.9261746723
C 3.8588938975 3.4634406264 0.8737492899
C 3.6996136338 -2.0056218185 0.3488739811
C 4.7988400492 -2.7779075306 -0.4755995933
C 5.6842939232 -1.5719613102 -0.9672305993
C 5.0418978923 -0.3636990053 -0.1746924545
O 4.4974680906 -0.9801838301 1.0611263686
H 2.8312770245 -1.7277483628 -1.6640227011
H 3.8387854083 0.3976172401 -1.944402735
H 3.1033498823 -2.6096748467 1.0592533616
H 5.3694718508 -3.4502043656 0.1852226661
H 4.3748541924 -3.3678833582 -1.3036541759
H 6.7417464209 -1.700914295 -0.6879265256
H 5.6249592878 -1.4224563111 -2.0574783424
H 5.7326059514 0.4634757847 0.0760591101
O -4.2076101774 -0.906222434 2.2546136064
C -3.5866644148 -2.0736277768 -2.8760026367
C -3.3064092734 1.7415283498 -1.2823982252
C -3.6050429092 3.2128771842 -0.7961330014
C -2.5909807721 3.354373749 0.3965521514
C -2.0131750298 1.8846529151 0.4738908497
O -1.873102618 1.5209406711 -0.953912914
H -5.0870277516 0.8134974809 -0.2140517464
H -3.8430115273 1.6208519842 1.6477940225
H -4.2292259697 -2.8566178373 -2.4241841045
H -3.4904233638 1.5450493304 -2.3554855211
H -3.3963354057 3.9379049756 -1.5983162454
H -4.6532307835 3.3321401272 -0.4775032104
H -1.7814202702 4.0603069519 0.1509124402
H -3.0686753305 3.6748556344 1.3360624433
H -1.0382646979 1.8185997633 0.9866959214
H -2.525122185 -2.3551532388 -2.7205878977
H -3.7949530765 -1.9998130726 -3.9591735631
H 4.7612005639 4.0899789269 0.9982630855
H 3.4404956233 3.2145560957 1.8704446469
H 3.0918443821 4.0241099912 0.3012640493
H -0.9386131586 -2.7243041876 1.2374233909
H -1.1177065416 -1.4169128759 -0.0032377799
H 0.0585045406 -0.9450613699 2.8383669639
H -0.4087661651 0.3163613261 1.6566049999
$end

$rem
JOBTYPE                   OPT
METHOD                    B3LYP
DFT_D                     d3_op
BASIS                     STO-3G
GEOM_OPT_MAX_CYCLES       100
GEOM_OPT_TOL_GRADIENT     300
GEOM_OPT_TOL_DISPLACEMENT 1200
GEOM_OPT_TOL_ENERGY       100
SYMMETRY                  False
THRESH                    12
SCF_CONVERGENCE           8
MAX_SUB_FILE_NUM          128
MEM_STATIC                400
MEM_TOTAL                 4000
$end
