$molecule
0  1
O -3.94934 -3.66094 2.70899
C -3.26408 -4.56952 2.26188
C -3.36658 -6.02376 2.66595
C -2.05386 -6.75991 2.98014
C -0.80092 -5.91378 3.02797
O 0.17328 -6.48337 2.2586
C 1.25062 -5.58895 1.96093
C 2.52088 -6.04033 2.67426
O 3.67519 -5.53628 1.98407
C 4.04242 -4.2717 2.30833
C 5.15057 -3.73786 1.43216
C 4.81004 -3.65356 -0.0629
C 3.33986 -3.76599 -0.41311
O 2.41718 -3.30996 0.24664
O -2.45101 -4.30988 1.20369
O 3.0527 -4.49234 -1.52558
O 3.50669 -3.61113 3.19093
C 1.78904 -4.64397 -2.05854
C 5.5378 -2.27507 1.72907
C 6.95375 -2.00186 1.22248
C 6.72187 -2.00059 -0.27351
C 5.20107 -2.1825 -0.31533
O 4.74846 -1.52475 0.84337
H 6.03323 -4.39034 1.6178
H 5.39642 -4.33928 -0.71442
H 5.46264 -2.00553 2.805
H 7.22617 -0.96968 1.53978
H 7.72814 -2.71291 1.58259
H 7.00093 -0.99912 -0.67048
H 7.25316 -2.79604 -0.83958
H 4.79572 -1.79943 -1.2787
O -0.66853 -4.90503 3.71247
C -2.2495 -3.05767 0.66294
C -4.13015 -6.22324 3.98852
C -4.65411 -7.65728 4.08385
C -3.37135 -8.40751 4.37204
C -2.3713 -7.24959 4.40675
O -3.11589 -6.19114 4.96152
H -3.89956 -6.52414 1.82668
H -1.88646 -7.62805 2.30101
H -1.81926 -2.37683 1.42826
H -4.96835 -5.50627 4.12673
H -5.3133 -7.73011 4.97817
H -5.21123 -7.99464 3.18334
H -3.44608 -8.8528 5.38949
H -3.10354 -9.19612 3.63616
H -1.45738 -7.54983 4.96618
H -3.20892 -2.64321 0.28631
H -1.53687 -3.13824 -0.18357
H 1.85199 -5.27801 -2.96649
H 1.3746 -3.65325 -2.34295
H 1.11153 -5.13489 -1.33152
H 2.51906 -5.84271 3.76948
H 2.56808 -7.14383 2.55298
H 1.05965 -4.51048 2.16134
H 1.41549 -5.68477 0.87088
$end

$opt
CONSTRAINT
tors           1           2           3           4    -133.043
tors           3           4           5           6    -130.085
tors           4           5           6           7    +164.354
tors           5           6           7           8    +111.653
tors           6           7           8           9    +156.056
tors           7           8           9          10     +84.244
tors           8           9          10          11    -172.870
tors           9          10          11          12     +60.924
tors          11          12          13          14     +36.378
ENDCONSTRAINT
$end

$rem
JOBTYPE                   OPT
METHOD                    B3LYP
DFT_D                     d3_op
BASIS                     STO-3G
GEOM_OPT_MAX_CYCLES       100
GEOM_OPT_TOL_GRADIENT     300
GEOM_OPT_TOL_DISPLACEMENT 1200
GEOM_OPT_TOL_ENERGY       100
SYMMETRY                  False
THRESH                    12
SCF_CONVERGENCE           8
MAX_SUB_FILE_NUM          128
MEM_STATIC                400
MEM_TOTAL                 4000
$end
