$molecule
0  1
O -3.94934 -3.66094 2.70899
C -3.26408 -4.56952 2.26188
C -3.36658 -6.02376 2.66595
C -2.27765 -6.57099 3.6033
C -1.30845 -5.55956 4.17404
O -0.31012 -5.31476 3.27469
C 0.56676 -4.25848 3.68039
C 1.94706 -4.81808 4.00866
O 2.91933 -3.76099 3.99633
C 2.57892 -2.64751 4.69162
C 3.63292 -1.56794 4.62635
C 3.70456 -0.8131 3.29092
C 2.51496 -0.98791 2.36843
O 1.35908 -1.16044 2.72726
O -2.25969 -4.26766 1.39821
O 2.80778 -1.1085 1.04712
O 1.71697 -2.61288 5.56071
C 1.87223 -1.35489 0.06413
C 3.39984 -0.3927 5.60376
C 4.718 0.33718 5.86213
C 4.91983 1.03187 4.53322
C 3.62506 0.63371 3.81799
O 2.67619 0.54601 4.8523
H 4.60058 -2.05206 4.8898
H 4.64201 -0.97732 2.71409
H 2.9495 -0.69814 6.57302
H 4.52116 1.11037 6.63925
H 5.55915 -0.30904 6.19343
H 4.94107 2.13018 4.71116
H 5.82249 0.72061 3.9642
H 3.39386 1.36367 3.00993
O -1.30518 -5.18543 5.34297
C -1.96015 -2.99224 0.96772
C -4.62456 -6.28505 3.52533
C -5.01403 -7.76098 3.45388
C -3.91911 -8.37834 4.29284
C -3.17129 -7.11816 4.73952
O -4.17852 -6.14551 4.84905
H -3.46675 -6.60578 1.72264
H -1.68218 -7.40261 3.16375
H -1.68207 -2.3523 1.83249
H -5.49545 -5.6575 3.2339
H -5.98128 -7.87812 3.99339
H -5.11471 -8.17005 2.42557
H -4.38809 -8.87544 5.17129
H -3.25729 -9.09539 3.76072
H -2.59848 -7.33541 5.66819
H -2.83143 -2.55215 0.43732
H -1.10139 -3.03788 0.26765
H 2.3816 -1.39991 -0.92018
H 1.11755 -0.5398 0.04052
H 1.36959 -2.32769 0.25122
H 1.9176 -5.32759 4.99617
H 2.2523 -5.5576 3.23818
H 0.10085 -3.58996 4.42713
H 0.67602 -3.62356 2.77704
$end

$opt
CONSTRAINT
tors           1           2           3           4    -103.881
tors           3           4           5           6     -83.245
tors           4           5           6           7    +173.511
tors           5           6           7           8    +111.653
tors           6           7           8           9    +161.687
tors           7           8           9          10     +48.306
tors           8           9          10          11    -179.291
tors           9          10          11          12     +74.856
tors          11          12          13          14     +32.046
ENDCONSTRAINT
$end

$rem
JOBTYPE                   OPT
METHOD                    B3LYP
DFT_D                     d3_op
BASIS                     STO-3G
GEOM_OPT_MAX_CYCLES       100
GEOM_OPT_TOL_GRADIENT     300
GEOM_OPT_TOL_DISPLACEMENT 1200
GEOM_OPT_TOL_ENERGY       100
SYMMETRY                  False
THRESH                    12
SCF_CONVERGENCE           8
MAX_SUB_FILE_NUM          128
MEM_STATIC                400
MEM_TOTAL                 4000
$end
