$molecule
0  1
O -3.94934 -3.66094 2.70899
C -3.26408 -4.56952 2.26188
C -3.36658 -6.02376 2.66595
C -2.05212 -6.76691 2.9554
C -0.79427 -5.92714 2.98157
O -0.33628 -5.73769 1.70886
C 0.66598 -4.71973 1.61674
C 1.96745 -5.31016 1.08412
O 2.20717 -4.84072 -0.25193
C 2.56946 -3.53801 -0.35606
C 2.79519 -3.10245 -1.78434
C 1.52116 -2.98095 -2.63308
C 0.21502 -2.95856 -1.86483
O 0.01943 -2.36071 -0.81655
O -2.52379 -4.19148 1.19456
O -0.72923 -3.73441 -2.47354
O 2.78069 -2.80928 0.60711
C -2.02411 -4.02679 -2.13028
C 3.35735 -1.66877 -1.91516
C 4.05525 -1.50824 -3.26546
C 2.86348 -1.50353 -4.19852
C 1.71965 -1.55315 -3.17987
O 2.22234 -0.85678 -2.06636
H 3.54123 -3.80559 -2.21887
H 1.45975 -3.72268 -3.46151
H 4.05558 -1.389 -1.09642
H 4.51815 -0.49526 -3.27679
H 4.83351 -2.26823 -3.49259
H 2.85351 -0.53701 -4.74985
H 2.81545 -2.35195 -4.91502
H 0.78733 -1.14194 -3.628
O -0.18286 -5.62658 4.0017
C -2.50607 -2.83962 0.85202
C -4.12384 -6.22143 3.99087
C -4.66695 -7.64771 4.07741
C -3.39161 -8.41715 4.33913
C -2.37745 -7.2708 4.38269
O -3.10301 -6.20996 4.95541
H -3.90867 -6.51681 1.82858
H -1.86505 -7.64209 2.29281
H -2.03887 -2.23834 1.66248
H -4.95149 -5.4947 4.1413
H -5.31426 -7.71873 4.9806
H -5.24193 -7.96923 3.18234
H -3.46352 -8.88097 5.34853
H -3.13901 -9.19434 3.58595
H -1.47209 -7.59966 4.9392
H -3.53555 -2.47008 0.6472
H -1.97854 -2.65696 -0.05112
H -2.45821 -4.67433 -2.91914
H -2.63462 -3.10095 -2.08978
H -2.04256 -4.61047 -1.19186
H 2.83085 -5.05875 1.74196
H 1.90045 -6.41919 1.07781
H 0.89652 -4.19822 2.57325
H 0.28699 -3.91528 0.96919
$end

$opt
CONSTRAINT
tors           1           2           3           4    -134.123
tors           3           4           5           6     -82.680
tors           4           5           6           7    +166.911
tors           5           6           7           8    +119.294
tors           6           7           8           9    +109.300
tors           7           8           9          10     +71.907
tors           8           9          10          11    -179.503
tors           9          10          11          12     +71.325
tors          11          12          13          14     +40.773
ENDCONSTRAINT
$end

$rem
JOBTYPE                   OPT
METHOD                    B3LYP
DFT_D                     d3_op
BASIS                     STO-3G
GEOM_OPT_MAX_CYCLES       100
GEOM_OPT_TOL_GRADIENT     300
GEOM_OPT_TOL_DISPLACEMENT 1200
GEOM_OPT_TOL_ENERGY       100
SYMMETRY                  False
THRESH                    12
SCF_CONVERGENCE           8
MAX_SUB_FILE_NUM          128
MEM_STATIC                400
MEM_TOTAL                 4000
$end
