$molecule
0  1
O -3.94934 -3.66094 2.70899
C -3.26408 -4.56952 2.26188
C -3.36658 -6.02376 2.66595
C -2.06972 -6.72481 3.10245
C -0.84749 -5.84701 3.25647
O -0.33904 -5.5396 2.02667
C 0.70777 -4.5645 2.07781
C 1.92303 -5.05661 1.29864
O 2.30776 -4.07655 0.32173
C 2.69845 -2.8777 0.821
C 3.03166 -1.87239 -0.25556
C 1.83959 -1.42329 -1.1132
C 0.46715 -1.75196 -0.56087
O 0.15094 -1.71619 0.61951
O -2.54249 -4.36411 1.14295
O -0.48546 -1.51675 -1.50797
O 2.83883 -2.64483 2.01613
C -1.66602 -0.81728 -1.33698
C 3.52353 -0.50745 0.27519
C 4.34381 0.19882 -0.80369
C 3.2553 0.56786 -1.78995
C 2.01642 0.10459 -1.01612
O 2.36638 0.2876 0.33436
H 3.84512 -2.32478 -0.86686
H 1.89526 -1.80746 -2.15653
H 4.11758 -0.58118 1.21193
H 4.74155 1.13443 -0.34864
H 5.1875 -0.3885 -1.22565
H 3.25306 1.67384 -1.91213
H 3.3245 0.07338 -2.78308
H 1.11593 0.65847 -1.36267
O -0.32797 -5.55808 4.32939
C -2.58029 -3.21419 0.41079
C -4.24122 -6.22865 3.91917
C -4.76387 -7.66428 3.96624
C -3.50252 -8.40931 4.34101
C -2.52286 -7.24137 4.48737
O -3.32168 -6.19427 4.98055
H -3.83123 -6.54475 1.79868
H -1.7842 -7.58284 2.45312
H -2.26368 -2.35792 1.04053
H -5.09485 -5.51952 3.98575
H -5.48247 -7.73788 4.81373
H -5.25885 -8.0055 3.03158
H -3.66099 -8.89047 5.33213
H -3.15898 -9.16738 3.60443
H -1.66984 -7.55068 5.13085
H -3.60856 -3.03846 0.02846
H -1.89751 -3.35294 -0.4471
H -1.65485 0.06503 -2.00914
H -1.79363 -0.44999 -0.29687
H -2.52763 -1.44731 -1.63419
H 2.7554 -5.35799 1.97172
H 1.6335 -5.9546 0.71161
H 0.99012 -4.1319 3.06344
H 0.2569 -3.74823 1.52023
$end

$opt
CONSTRAINT
tors           1           2           3           4    -127.669
tors           3           4           5           6     -76.557
tors           4           5           6           7    +171.935
tors           5           6           7           8    +129.454
tors           6           7           8           9    +126.015
tors           7           8           9          10     +62.627
tors           8           9          10          11    -177.473
tors           9          10          11          12     +66.357
tors          11          12          13          14     +37.376
ENDCONSTRAINT
$end

$rem
JOBTYPE                   OPT
METHOD                    B3LYP
DFT_D                     d3_op
BASIS                     STO-3G
GEOM_OPT_MAX_CYCLES       100
GEOM_OPT_TOL_GRADIENT     300
GEOM_OPT_TOL_DISPLACEMENT 1200
GEOM_OPT_TOL_ENERGY       100
SYMMETRY                  False
THRESH                    12
SCF_CONVERGENCE           8
MAX_SUB_FILE_NUM          128
MEM_STATIC                400
MEM_TOTAL                 4000
$end
