$molecule
0  1
O -3.94934 -3.66094 2.70899
C -3.26408 -4.56952 2.26188
C -3.36658 -6.02376 2.66595
C -2.1637 -6.92746 2.34928
C -0.92277 -6.23941 1.8251
O -0.57237 -6.77162 0.61705
C -1.31617 -7.94825 0.28302
C -1.23199 -8.21534 -1.21622
O -0.70497 -9.53079 -1.45015
C -0.20839 -9.74742 -2.69338
C -1.12874 -10.57508 -3.55858
C -2.62163 -10.44833 -3.22166
C -3.00276 -9.27648 -2.33951
O -3.59047 -9.35574 -1.27045
O -2.53148 -4.28286 1.15171
O -3.27536 -8.14426 -3.06698
O 0.62717 -9.00052 -3.18515
C -4.07744 -7.09693 -2.65019
C -1.14048 -10.24029 -5.0662
C -1.57007 -11.47571 -5.85625
C -3.03431 -11.56221 -5.47338
C -3.17988 -10.27398 -4.65358
O -2.24836 -9.39234 -5.23569
H -0.77521 -11.62297 -3.43119
H -3.0225 -11.36332 -2.73152
H -0.16862 -9.86262 -5.45065
H -1.50029 -11.20717 -6.93504
H -0.97734 -12.39759 -5.67275
H -3.64278 -11.51502 -6.40364
H -3.31761 -12.45541 -4.8755
H -4.2396 -9.93566 -4.6488
O -0.33759 -5.29369 2.33447
C -2.39555 -3.02662 0.59752
C -3.39089 -6.08759 4.21041
C -3.92038 -7.44345 4.68863
C -2.69262 -8.29554 4.48904
C -1.75582 -7.27916 3.82153
O -2.03166 -6.11004 4.5484
H -4.33161 -6.39457 2.25437
H -2.58756 -7.9257 2.12011
H -1.93317 -2.33377 1.33273
H -3.99375 -5.27407 4.67073
H -4.15623 -7.41609 5.7759
H -4.81797 -7.76099 4.11505
H -2.25788 -8.52625 5.48856
H -2.85449 -9.24882 3.94133
H -0.71146 -7.65948 3.90717
H -3.38679 -2.63609 0.28302
H -1.73819 -3.09245 -0.29354
H -4.1035 -6.32247 -3.44365
H -3.68124 -6.64046 -1.71892
H -5.11221 -7.45914 -2.47235
H -1.49002 -7.46302 -1.98545
H -0.26671 -7.67878 -1.36696
H -2.40891 -7.75192 0.18659
H -0.9991 -8.83366 0.88432
$end

$opt
CONSTRAINT
tors           1           2           3           4    -161.053
tors           3           4           5           6    -123.158
tors           4           5           6           7      -9.474
tors           5           6           7           8    +161.053
tors           6           7           8           9    +123.158
tors           7           8           9          10    -161.053
tors           8           9          10          11    -104.211
tors           9          10          11          12     +28.421
tors          11          12          13          14    -123.158
ENDCONSTRAINT
$end

$rem
JOBTYPE                   OPT
METHOD                    B3LYP
DFT_D                     d3_op
BASIS                     STO-3G
GEOM_OPT_MAX_CYCLES       100
GEOM_OPT_TOL_GRADIENT     300
GEOM_OPT_TOL_DISPLACEMENT 1200
GEOM_OPT_TOL_ENERGY       100
SYMMETRY                  False
THRESH                    12
SCF_CONVERGENCE           8
MAX_SUB_FILE_NUM          128
MEM_STATIC                400
MEM_TOTAL                 4000
$end
