$molecule
0  1
O -4.906356302 -2.5887618966 0.331089034
C -4.087008889 -1.6536104502 0.2105276745
C -4.260001816 -0.1756778104 0.7050184004
C -3.3074564387 0.8975360315 0.0349213387
C -2.6845993683 0.3912077553 -1.3358121729
O -1.2582500844 0.340991535 -1.5405436412
C -0.4023190693 0.9750013258 -0.517217947
C 1.0371827576 0.3704068992 -0.7025607951
O 1.98275328 1.4970215142 -0.9314150091
C 3.1772651049 0.9402648203 -1.5378479145
C 4.4650831197 0.7729609125 -0.6177605454
C 4.439622875 0.5396701172 0.958767223
C 3.1255212924 0.4088981828 1.7984688606
O 2.8160027545 1.1253753205 2.7750225781
O -2.7437185277 -1.8217901404 -0.2590883943
O 2.4251013393 -0.8165245632 1.4911965954
O 3.2228232979 0.6567154617 -2.7543952341
C 1.3811020636 -1.0673300321 2.5167916781
C 5.2796559539 -0.5078728158 -1.0999506008
C 6.8062573669 -0.3046044073 -0.7607474611
C 6.7957872282 -0.5071952699 0.7992076385
C 5.2688611693 -0.8245212152 1.0538523611
O 4.8511503472 -1.5636109879 -0.1552533796
H 5.0681341097 1.6829311527 -0.8050274322
H 4.9930442186 1.3652216004 1.4411446698
H 5.0540375949 -0.7957088719 -2.1455774312
H 7.4156551146 -1.072606438 -1.2632457599
H 7.1724718089 0.6901671311 -1.0609717529
H 7.4216235704 -1.3613174617 1.1029438297
H 7.1285441433 0.3877569717 1.3486756151
H 5.0593494785 -1.4206006391 1.9633132751
O -3.39375014 0.0386508931 -2.3036939774
C -2.5336104744 -3.1970773387 -0.762649147
C -5.6968196137 0.4439165567 0.4278869403
C -5.9392374903 1.5687319579 1.5068973231
C -4.925697949 2.6686509727 1.0144581308
C -4.3824702988 2.0172724315 -0.3212063269
O -5.524258397 1.2183020801 -0.8215913818
H -4.074698186 -0.1988728177 1.7962247329
H -2.555349125 1.2671422934 0.7460467886
H -3.1757601186 -3.4070483452 -1.6420880507
H -6.5032884468 -0.3075581108 0.3205396663
H -6.9790968227 1.9294247103 1.4555501112
H -5.7336839277 1.2231536512 2.5325927437
H -5.4323737963 3.6231055765 0.8016483829
H -4.117288583 2.8535904615 1.7399643031
H -4.0513034444 2.7389926381 -1.0931337686
H -2.7448601922 -3.9531903461 0.0210147461
H -1.4706235447 -3.2525152168 -1.0611662134
H 0.8732541212 -1.9991420717 2.2074625506
H 0.6443895216 -0.2401245721 2.566205204
H 1.8300708173 -1.2013425445 3.5212738858
H 1.3813035805 -0.2360816427 0.1654843015
H 0.9948310758 -0.2900496849 -1.59820143
H -0.7571447275 0.7682312412 0.512664282
H -0.36186372 2.0788448755 -0.6612658746
$end

$rem
JOBTYPE                   OPT
METHOD                    B3LYP
DFT_D                     d3_op
BASIS                     STO-3G
GEOM_OPT_MAX_CYCLES       100
GEOM_OPT_TOL_GRADIENT     300
GEOM_OPT_TOL_DISPLACEMENT 1200
GEOM_OPT_TOL_ENERGY       100
SYMMETRY                  False
THRESH                    12
SCF_CONVERGENCE           8
MAX_SUB_FILE_NUM          128
MEM_STATIC                400
MEM_TOTAL                 4000
$end
