$molecule
0  1
O -3.94934 -3.66094 2.70899
C -3.26408 -4.56952 2.26188
C -3.36658 -6.02376 2.66595
C -4.06137 -6.97914 1.68189
C -4.41791 -6.40938 0.32677
O -4.62628 -7.42435 -0.56308
C -3.53937 -7.60379 -1.47724
C -2.21421 -7.61629 -0.72231
O -1.72043 -8.96132 -0.62261
C -0.47974 -9.16615 -1.13044
C 0.39049 -7.93325 -1.07287
C -0.27715 -6.64554 -1.57717
C -1.78492 -6.69578 -1.7215
O -2.52373 -5.72379 -1.78432
O -2.36528 -4.25568 1.29143
O -1.80208 -7.3068 -3.04725
O -0.12213 -10.2439 -1.57787
C -2.32893 -6.82617 -4.24353
C 0.88264 -7.50102 0.32774
C 2.18784 -6.71834 0.18072
C 1.67322 -5.43928 -0.45542
C 0.1609 -5.7073 -0.42225
O 0.00307 -6.48832 0.73341
H 1.2976 -8.19205 -1.66556
H 0.17273 -6.23897 -2.51519
H 1.00936 -8.35366 1.02941
H 2.54585 -6.48657 1.20964
H 2.99888 -7.2326 -0.37845
H 1.93682 -4.58792 0.21073
H 2.03582 -5.24053 -1.48699
H -0.39362 -4.75784 -0.45195
O -5.00477 -5.34575 0.1943
C -2.21019 -2.96584 0.81065
C -2.29195 -6.91237 3.33737
C -2.94949 -7.76944 4.42634
C -3.79208 -8.7187 3.57127
C -3.34495 -8.30755 2.1528
O -2.00386 -7.92053 2.40625
H -4.11416 -5.87181 3.48122
H -5.11066 -7.13272 2.02687
H -1.90204 -2.28582 1.63366
H -1.42533 -6.3362 3.72525
H -2.1365 -8.35461 4.91365
H -3.509 -7.21745 5.21205
H -3.47019 -9.75975 3.79594
H -4.89117 -8.63401 3.70903
H -3.50521 -9.1415 1.43699
H -3.16416 -2.60701 0.36786
H -1.43476 -2.92792 0.02473
H -3.07762 -7.54977 -4.63157
H -1.51026 -6.73729 -4.98638
H -2.80904 -5.83066 -4.13392
H -2.19272 -7.24194 0.33455
H -2.19272 -7.24194 0.33455
H -3.97522 -7.22918 -2.4491
H -3.65243 -8.65685 -1.82749
$end

$opt
CONSTRAINT
tors           1           2           3           4    +104.211
tors           3           4           5           6    +161.053
tors           4           5           6           7    -104.211
tors           5           6           7           8     +47.368
tors           6           7           8           9    +104.211
tors           7           8           9          10    +123.158
tors           8           9          10          11     +28.421
tors           9          10          11          12     -47.368
tors          11          12          13          14    +161.053
ENDCONSTRAINT
$end

$rem
JOBTYPE                   OPT
METHOD                    B3LYP
DFT_D                     d3_op
BASIS                     STO-3G
GEOM_OPT_MAX_CYCLES       100
GEOM_OPT_TOL_GRADIENT     300
GEOM_OPT_TOL_DISPLACEMENT 1200
GEOM_OPT_TOL_ENERGY       100
SYMMETRY                  False
THRESH                    12
SCF_CONVERGENCE           8
MAX_SUB_FILE_NUM          128
MEM_STATIC                400
MEM_TOTAL                 4000
$end
