$molecule
0  1
O 3.1462903225 1.1471642006 2.517468065
C 3.1274854182 0.2936813094 1.603744511
C 3.6851498312 0.5331268167 0.1573605783
C 3.241771186 -0.2745452385 -1.1390716214
C 1.8212511392 -0.9671321169 -1.2022344131
O 1.9148070272 -2.3371531221 -0.7842517555
C 0.7826524478 -2.8491484737 0.0298423142
C 0.1441913649 -1.8794785046 1.0770859167
O -0.6380143231 -0.7814867922 0.4454047233
C -1.6387327354 -0.3512206272 1.3759175079
C -2.5788732134 0.7588347741 0.7838627638
C -3.1448142516 0.6534650859 -0.6986489426
C -2.9994038734 -0.7264015575 -1.438033623
O -3.9059497866 -1.5658629833 -1.6381692219
O 2.859125857 -1.0981941861 1.8480082811
O -1.6998998218 -0.8100297528 -2.0165635252
O -1.7386822064 -0.8088831919 2.5384493423
C -1.5701725008 -2.0573904998 -2.8028095825
C -3.921769885 0.8824027 1.6238821753
C -4.426914133 2.3721167788 1.5162595032
C -4.9079760361 2.4104321761 0.0179500225
C -4.6864540536 0.9071204651 -0.4188289719
O -4.9164744282 0.1329835444 0.8237233378
H -2.0065135413 1.7038654623 0.8604994083
H -2.6872413681 1.4307078444 -1.3366583871
H -3.8404617463 0.4640806113 2.6463594525
H -5.2632770196 2.5447098505 2.2124424574
H -3.6312879328 3.1036946104 1.7297740943
H -5.9717021915 2.6848857574 -0.0617978527
H -4.3170003932 3.1075741978 -0.5976671701
H -5.3509819165 0.5410747334 -1.2251146001
O 0.7837017435 -0.4162059831 -1.6227433465
C 2.7533259715 -1.3314935749 3.3132240242
C 3.5178628854 2.0409650768 -0.3298190535
C 4.8196572985 2.4237283729 -1.1315239541
C 4.6354502024 1.5301210807 -2.4150897687
C 3.1913627734 0.931767036 -2.1760920862
O 2.4893924926 1.9747397262 -1.3899022381
H 4.76778436 0.3304685517 0.2838483081
H 4.0067703892 -1.0316882432 -1.3897089804
H 1.9270030737 -0.7478078106 3.7668207117
H 3.2183769981 2.7401957603 0.4754173523
H 4.8106359713 3.4961165688 -1.3845326327
H 5.7438327843 2.1979167477 -0.5758783209
H 4.656516513 2.1322773588 -3.3369043024
H 5.3996054076 0.7400595469 -2.49445647
H 2.6204684251 0.700125475 -3.0957247978
H 3.6983147466 -1.0679248537 3.8287957187
H 2.5524957238 -2.4118491876 3.4317222424
H -0.5041087128 -2.1177312835 -3.087868872
H -2.2014562346 -2.0291632643 -3.7150495019
H -1.8533632884 -2.950618274 -2.2101581906
H -0.5028858683 -2.4564574268 1.7706712587
H 0.9893594463 -1.4356112604 1.6455897751
H 1.2159842507 -3.7048694505 0.5890808325
H -0.014990713 -3.247642983 -0.6386723017
$end

$rem
JOBTYPE                   OPT
METHOD                    B3LYP
DFT_D                     d3_op
BASIS                     STO-3G
GEOM_OPT_MAX_CYCLES       100
GEOM_OPT_TOL_GRADIENT     300
GEOM_OPT_TOL_DISPLACEMENT 1200
GEOM_OPT_TOL_ENERGY       100
SYMMETRY                  False
THRESH                    12
SCF_CONVERGENCE           8
MAX_SUB_FILE_NUM          128
MEM_STATIC                400
MEM_TOTAL                 4000
$end
