$molecule
0  1
O -5.6187068701 0.8511549053 1.9054828777
C -5.1103176868 1.2865328477 0.8510295845
C -5.0811020892 0.5854765542 -0.5590244454
C -3.8662445109 -0.4098872894 -0.7659512049
C -2.8259428621 -0.3855548675 0.4013504745
O -1.7665777514 -1.2935424105 0.0768914283
C -0.6416990703 -1.1436439399 1.0334338674
C 0.632632011 -0.6924159203 0.238936707
O 1.6959480869 -0.4444478599 1.2359991653
C 2.7996860129 0.239938216 0.5579936217
C 3.9448799495 -0.7670718504 0.190240919
C 4.9950461162 -0.2491011515 -0.8742058644
C 5.0001583022 1.3134230706 -1.0619100564
O 5.4196081706 2.1789883098 -0.2658425761
O -4.5049685777 2.5798459288 0.7123590268
O 4.4098066222 1.6053564465 -2.3366746503
O 2.7670975751 1.4624593311 0.3126681961
C 4.3180903806 3.0715488777 -2.5217028566
C 4.8975289997 -1.1843291839 1.401760406
C 5.4800607017 -2.6102283423 1.0591370752
C 6.460563181 -2.2503228272 -0.1185949097
C 6.3448661039 -0.6735858509 -0.1515741007
O 6.0731856521 -0.3013381423 1.258060151
H 3.4368079795 -1.6703278578 -0.1943292032
H 4.8515740088 -0.7316760833 -1.8565480274
H 4.4447815302 -1.0809724161 2.4070116269
H 6.0256199328 -3.0161782714 1.9261567386
H 4.6968026409 -3.3270172608 0.7650671777
H 7.4941018942 -2.5588101178 0.1043362058
H 6.1567681226 -2.7035038186 -1.0759374229
H 7.2440581225 -0.143472113 -0.5203892662
O -2.8446047231 0.3330746939 1.4260986972
C -4.4338571284 3.2388790253 2.0354914699
C -6.3020243962 -0.4199926509 -0.6909198259
C -6.4503544597 -0.8534126034 -2.2029357404
C -5.2588952784 -1.8707250488 -2.348227411
C -4.6269647515 -1.8033112616 -0.9021880302
O -5.8019317088 -1.6436019624 -0.019935446
H -5.0894161194 1.3670644641 -1.339216252
H -3.3170767322 -0.1800280582 -1.6975407375
H -3.8012497336 2.6578297714 2.7374171273
H -7.2325760922 -0.0707760979 -0.2035667218
H -7.4228904719 -1.3422491838 -2.371875275
H -6.3628872523 0.0048035917 -2.8883180809
H -5.6215406673 -2.8895043421 -2.5590534876
H -4.5410800807 -1.5820668021 -3.1324534031
H -4.0246207408 -2.6835662267 -0.6044597038
H -5.4397374382 3.3628380242 2.4863875594
H -3.9800604534 4.2317833699 1.8610810226
H 3.8199864003 3.2273969 -3.496358672
H 5.3206708468 3.5460958628 -2.5386974261
H 3.7190929183 3.5429468688 -1.7159390602
H 0.9306862905 -1.4869304007 -0.4847240037
H 0.3895195328 0.2270862186 -0.3414100814
H -0.4636927743 -2.120959005 1.5284510686
H -0.9176518939 -0.385356866 1.7978736198
$end

$rem
JOBTYPE                   OPT
METHOD                    B3LYP
DFT_D                     d3_op
BASIS                     STO-3G
GEOM_OPT_MAX_CYCLES       100
GEOM_OPT_TOL_GRADIENT     300
GEOM_OPT_TOL_DISPLACEMENT 1200
GEOM_OPT_TOL_ENERGY       100
SYMMETRY                  False
THRESH                    12
SCF_CONVERGENCE           8
MAX_SUB_FILE_NUM          128
MEM_STATIC                400
MEM_TOTAL                 4000
$end
