$molecule
0  1
O 2.5576060345 2.6758593976 -0.9759888843
C 2.426753762 1.9410206433 0.0280532188
C 3.5410820749 1.03844294 0.678906668
C 3.5278351028 -0.4835794148 0.2460743805
C 2.3520295481 -0.8765153029 -0.707988818
O 2.3802675154 -2.3058990674 -0.8526835897
C 1.1235064178 -2.8064814793 -1.4531046529
C -0.0925933776 -2.7550875484 -0.4518962134
O -1.1424253919 -1.9273061706 -1.0891057961
C -2.0344728716 -1.3993498332 -0.1023721664
C -3.1224602815 -0.5602665489 -0.8661922177
C -4.2513467655 -0.0090751268 0.0863863273
C -4.5423272037 -0.8321025388 1.3900950069
O -5.0248587065 -0.3819110216 2.4525248391
O 1.2661436977 1.894885484 0.8627650405
O -4.4351057825 -2.2295439758 1.0839400524
O -1.873308918 -1.5192223558 1.130561726
C -4.7563332156 -3.0447171051 2.276725092
C -2.3953043707 0.8019491325 -1.2422245128
C -3.3609237395 1.7541951652 -2.0508549372
C -4.2653984027 2.3401181516 -0.9019535565
C -3.7690493431 1.4853276246 0.3253438561
O -2.3048741329 1.4283783345 0.099983633
H -3.5084188862 -1.1184418476 -1.7366027017
H -5.2094393185 0.004522976 -0.4677299261
H -1.3835212712 0.668781783 -1.6741145109
H -2.786845896 2.5432298284 -2.5616392396
H -3.9424896716 1.1981970672 -2.8037413459
H -4.0553040673 3.4085815035 -0.732990423
H -5.3425014939 2.2151817173 -1.0966506728
H -3.9996999309 1.888436386 1.3307142013
O 1.4923645012 -0.1298894835 -1.2243581028
C 0.2354589637 2.841945407 0.3678991666
C 4.9733112714 1.4790635014 0.1547008185
C 6.075089951 0.8633804748 1.1033509251
C 6.0574534551 -0.6446586202 0.6524432413
C 4.9453291826 -0.6118367213 -0.4686205167
O 5.1268952598 0.7103563257 -1.1034486658
H 3.4539901333 1.125761593 1.7764176241
H 3.4755133222 -1.1513201146 1.1246486341
H 0.5172445362 3.1943006019 -0.6438523345
H 5.0659533005 2.5634967861 -0.047356138
H 7.0541427535 1.3300702886 0.9111028566
H 5.8250459372 0.9925163091 2.1683753667
H 7.0255030673 -0.9496796396 0.2240051989
H 5.800105368 -1.3345053239 1.4718569094
H 5.005838631 -1.4233188815 -1.2199296592
H 0.1899300609 3.7118243574 1.0535937339
H -0.7531668633 2.3253004736 0.349442697
H -3.8234011592 -3.4722900617 2.696361524
H -5.4280990902 -3.8658099339 1.9612042221
H -5.2497469035 -2.4105998504 3.0406847225
H -0.4854558737 -3.7770101558 -0.2585985429
H 0.2093342356 -2.3162030584 0.5243430385
H 1.341234939 -3.8514537361 -1.7492226401
H 0.8507578535 -2.219080331 -2.3575896689
$end

$rem
JOBTYPE                   OPT
METHOD                    B3LYP
DFT_D                     d3_op
BASIS                     STO-3G
GEOM_OPT_MAX_CYCLES       100
GEOM_OPT_TOL_GRADIENT     300
GEOM_OPT_TOL_DISPLACEMENT 1200
GEOM_OPT_TOL_ENERGY       100
SYMMETRY                  False
THRESH                    12
SCF_CONVERGENCE           8
MAX_SUB_FILE_NUM          128
MEM_STATIC                400
MEM_TOTAL                 4000
$end
