$molecule
0  1
O -3.6723534929 0.6678548583 2.6796177361
C -3.6883320846 1.1736854631 1.5379302457
C -4.6996181263 0.8677262791 0.369025437
C -4.1242689855 -0.0674037824 -0.7711252016
C -2.6683273847 -0.5644119913 -0.482228671
O -2.2357065664 -1.3505976033 -1.5963383992
C -0.8470955049 -1.8424032616 -1.4099927607
C 0.2193867172 -0.6901176532 -1.3492424508
O 1.4951981952 -1.3413009401 -0.95879671
C 2.4850817746 -0.3476708086 -0.6757422783
C 3.8280258054 -1.0729446683 -0.3191223664
C 5.050582637 -0.0742805003 -0.3065366642
C 4.8108246444 1.2852380387 -1.0568773099
O 5.1773923534 2.4212735205 -0.6886813418
O -2.8280273435 2.2363308964 1.1014962461
O 4.3197563287 0.9853720917 -2.3736607079
O 2.2616532822 0.8829044998 -0.6617645666
C 4.073659504 2.2408062042 -3.1156105407
C 3.7732415119 -1.4617366807 1.2237563483
C 5.0586946917 -2.3016196706 1.6000115117
C 6.1463020876 -1.1692923556 1.7194650705
C 5.3156833828 0.0858513003 1.2488217773
O 3.9911347488 -0.1479186954 1.8728830645
H 3.9763264451 -1.9444234396 -0.9801767377
H 5.9219506667 -0.5503308585 -0.7947905787
H 2.8097811845 -1.9027399462 1.5462575958
H 4.9115403965 -2.8302135107 2.5550802
H 5.3040678522 -3.0412647823 0.8209849543
H 6.4769982539 -1.040412956 2.762578245
H 7.0299192472 -1.3549373612 1.0879896175
H 5.7167393294 1.0766405703 1.5388600732
O -1.9859041402 -0.3598958932 0.546847808
C -1.7947687682 2.495153332 2.1286499764
C -5.9231990633 -0.0015189833 0.8805103121
C -7.0877551199 0.1051055987 -0.1800758786
C -6.5253195384 -0.7997715755 -1.3391409636
C -5.1555497959 -1.2790766717 -0.714801955
O -5.4471745138 -1.3977068428 0.7300148484
H -5.0323789229 1.831250214 -0.0562805193
H -4.1371618574 0.4261979224 -1.7596112837
H -1.1528962057 1.6034030697 2.2824202707
H -6.2086798339 0.1938090108 1.9321552442
H -8.0242887816 -0.3030274294 0.2322369717
H -7.26482917 1.144410478 -0.4998080934
H -7.1809563451 -1.6631902509 -1.5352449556
H -6.380423697 -0.2459465985 -2.280725188
H -4.7577784996 -2.2311958055 -1.1170860573
H -2.2448333618 2.7789940516 3.1019017575
H -1.1811080943 3.3311405796 1.7455502096
H 3.7960833155 1.9422790894 -4.1433976149
H 4.9758388912 2.8852654934 -3.1443417202
H 3.2419154492 2.8170082657 -2.6604237743
H 0.3160612899 -0.1838453323 -2.3338435399
H -0.0843728066 0.0608544753 -0.5892736184
H -0.6538815401 -2.505688093 -2.2762982494
H -0.7688697686 -2.4383035573 -0.4741212924
$end

$rem
JOBTYPE                   OPT
METHOD                    B3LYP
DFT_D                     d3_op
BASIS                     STO-3G
GEOM_OPT_MAX_CYCLES       100
GEOM_OPT_TOL_GRADIENT     300
GEOM_OPT_TOL_DISPLACEMENT 1200
GEOM_OPT_TOL_ENERGY       100
SYMMETRY                  False
THRESH                    12
SCF_CONVERGENCE           8
MAX_SUB_FILE_NUM          128
MEM_STATIC                400
MEM_TOTAL                 4000
$end
