$molecule
0  1
O -1.7527682466 1.2490861972 2.3299889367
C -1.9968210911 1.3242067517 1.1058763057
C -3.3767620112 1.0136619551 0.4113580333
C -3.4357554141 -0.3820886229 -0.3321568209
C -2.0721608818 -1.1430967814 -0.398230304
O -2.2146605719 -2.1823125924 -1.3791282579
C -0.9542326817 -2.9400164642 -1.5305959174
C 0.1996876338 -2.1546817821 -2.2726759249
O 1.4181354967 -2.1277314249 -1.4304795339
C 1.8651344006 -0.7828080293 -1.234128437
C 3.1501728428 -0.8260862046 -0.3418528092
C 3.7671779778 0.606258955 -0.0861061256
C 3.2486008835 1.7160250182 -1.0733649008
O 2.6355140688 2.7729153285 -0.8079242937
O -1.0965860848 1.831486548 0.1240849781
O 3.7283447888 1.3749966118 -2.3809284024
O 1.2925700262 0.2310610383 -1.6939912492
C 3.1938397625 2.3320067313 -3.3751350034
C 2.7062696169 -1.2115555937 1.1377799219
C 3.9900934973 -1.4385709299 2.0286975193
C 4.443934701 0.044136315 2.3074918222
C 3.4002384689 0.8437236598 1.437053405
O 2.1526500108 0.0678182286 1.6410422698
H 3.8762386494 -1.5412590605 -0.7668452928
H 4.8643708698 0.560007947 -0.212021946
H 1.9409926813 -2.0108254891 1.1843865322
H 3.7251265665 -1.9638628427 2.9597908168
H 4.7578048651 -2.0245508943 1.4983440043
H 4.3325901089 0.3040713242 3.3723176566
H 5.4840220695 0.2379019624 2.0004445506
H 3.2439652916 1.9050589163 1.710548729
O -1.0302076866 -0.9496077266 0.2649894142
C 0.2111058232 2.1149059265 0.7609995384
C -4.4955527908 0.8033936997 1.5131556968
C -5.9143366005 0.8217093801 0.8201025678
C -5.945273006 -0.5992367213 0.1443744174
C -4.5216907382 -1.1530770405 0.5453076973
O -4.3145022739 -0.6158515602 1.9062210119
H -3.6163947151 1.8367897852 -0.2850547644
H -3.7976131493 -0.2669139891 -1.3694830665
H 0.7091593073 1.1811322029 1.1134297295
H -4.3856407994 1.459502104 2.39790282
H -6.7121398939 0.9287777074 1.5720853523
H -6.0067113362 1.6406488364 0.0889042378
H -6.7369592821 -1.2338377142 0.5737045928
H -6.0827137312 -0.5520937671 -0.9477742987
H -4.4224320113 -2.2560563003 0.5361499517
H 0.0919296687 2.805476327 1.619320714
H 0.8572273615 2.5815279605 -0.00833195
H 3.6165265116 2.029172262 -4.3507889765
H 3.4948620397 3.3745783555 -3.1459059391
H 2.0862831182 2.2837573747 -3.4179553872
H 0.4544628251 -2.6629917525 -3.2260398895
H -0.1036909695 -1.1060298573 -2.4887857306
H -1.2340238108 -3.8406913122 -2.1118854024
H -0.5661721456 -3.2598790219 -0.5377638976
$end

$rem
JOBTYPE                   OPT
METHOD                    B3LYP
DFT_D                     d3_op
BASIS                     STO-3G
GEOM_OPT_MAX_CYCLES       100
GEOM_OPT_TOL_GRADIENT     300
GEOM_OPT_TOL_DISPLACEMENT 1200
GEOM_OPT_TOL_ENERGY       100
SYMMETRY                  False
THRESH                    12
SCF_CONVERGENCE           8
MAX_SUB_FILE_NUM          128
MEM_STATIC                400
MEM_TOTAL                 4000
$end
