$molecule
0  1
O 1.269767505 0.2409820823 1.7235900212
C 2.33111096 -0.4030421998 1.5694896586
C 3.5923551241 0.0127836077 0.7422394463
C 3.5652373721 -0.3233886109 -0.8079254547
C 2.3286159271 -1.0429354044 -1.45819782
O 1.3696847438 -1.5408580578 -0.5132179022
C 0.5186415556 -2.5668640741 -1.1698955511
C -0.9290286615 -2.0000852776 -1.5213756175
O -1.1911141696 -0.6753089581 -0.9310681758
C -1.681940696 -0.8234121402 0.4319264353
C -3.2347321092 -0.5783263763 0.5543705304
C -3.588604139 0.9687064976 0.7250340064
C -2.3381165805 1.8726390117 0.4206044409
O -1.9647857787 2.2801531308 -0.7015654758
O 2.6013643608 -1.6711196191 2.1647598425
O -1.6393754285 2.088112293 1.6455154407
O -0.968764254 -1.1687979993 1.3959988103
C -0.3138780291 2.7121186898 1.3868413774
C -4.1000745925 -0.9433872758 -0.7260722887
C -5.5964763354 -1.1139618913 -0.2464162038
C -5.9965822213 0.383878264 0.0234175338
C -4.6785181592 1.1397066719 -0.4106118108
O -4.1379580788 0.3080334588 -1.5126024462
H -3.5724864003 -1.1415641939 1.4431081133
H -3.9709162559 1.1857350873 1.7377969712
H -3.7086567234 -1.7739768729 -1.3416730132
H -6.2061600163 -1.5553708442 -1.0508317852
H -5.6807009559 -1.7480630882 0.6506478645
H -6.8468127964 0.6951965269 -0.6038131469
H -6.249479904 0.5704361615 1.0793783647
H -4.8183135762 2.1828676102 -0.753582453
O 2.2288132561 -1.2368588833 -2.6914418929
C 1.4133988604 -2.1523526613 2.9123586997
C 3.7414031773 1.5949044114 0.6998453913
C 5.226954218 1.9479630649 0.2985039192
C 5.2092795095 1.6185509969 -1.2402820778
C 3.7185187644 1.135070293 -1.430760797
O 2.9525658141 1.9830952038 -0.4909973728
H 4.4688157441 -0.4672768776 1.2123062744
H 4.4392189869 -0.9483389774 -1.0707894696
H 0.4789701075 -1.9015482156 2.3650799115
H 3.3561902823 2.1109283459 1.6003831797
H 5.4348455588 3.0140174056 0.482103615
H 5.9608587152 1.3431400477 0.8547701651
H 5.4003424924 2.5174857286 -1.8478607211
H 5.9381940516 0.8410783092 -1.519857953
H 3.3181898527 1.2241415118 -2.4596469444
H 1.3768716125 -1.6958504978 3.9226558493
H 1.5347701514 -3.2464828421 3.0133905934
H -0.140411816 3.4616334137 2.1812145464
H -0.3102957268 3.195249324 0.3904220247
H 0.4619100759 1.9107378072 1.4282373813
H -0.9936832475 -1.8336639544 -2.6165897976
H -1.6927759398 -2.7552204427 -1.2359420542
H 0.435588754 -3.3946029975 -0.43605447
H 1.0096535095 -2.922738731 -2.0986856224
$end

$rem
JOBTYPE                   OPT
METHOD                    B3LYP
DFT_D                     d3_op
BASIS                     STO-3G
GEOM_OPT_MAX_CYCLES       100
GEOM_OPT_TOL_GRADIENT     300
GEOM_OPT_TOL_DISPLACEMENT 1200
GEOM_OPT_TOL_ENERGY       100
SYMMETRY                  False
THRESH                    12
SCF_CONVERGENCE           8
MAX_SUB_FILE_NUM          128
MEM_STATIC                400
MEM_TOTAL                 4000
$end
