$molecule
0  1
O -3.94934 -3.66094 2.70899
C -3.26408 -4.56952 2.26188
C -3.36658 -6.02376 2.66595
C -4.73745 -6.52338 3.15068
C -5.89497 -5.55994 3.00924
O -6.47736 -5.35235 4.22709
C -5.62276 -4.67026 5.15103
C -4.20952 -4.57235 4.58597
O -4.25718 -4.11658 3.22477
C -3.35799 -4.689 2.38636
C -3.1334 -3.88594 1.12726
C -2.46215 -2.52137 1.34092
C -1.80189 -2.31362 2.6891
O -2.14003 -2.85033 3.73417
O -1.3095 -4.68141 1.82586
O -0.8211 -1.37224 2.73366
O -1.95523 -4.90995 3.7392
C -0.03361 -1.13776 3.84327
C -2.43907 -4.28239 -0.35021
C -2.93619 -3.58887 -1.63519
C -2.36421 -2.19011 -1.41212
C -1.6306 -2.3822 -0.05185
O -1.19056 -3.66888 -0.32395
H -4.15003 -3.64574 0.51984
H -3.21374 -1.69947 1.32119
H -2.41312 -5.35412 -0.59622
H -2.36235 -4.05356 -2.4932
H -3.99665 -3.69394 -1.93828
H -1.55294 -2.07905 -2.19387
H -3.01849 -1.3228 -1.62126
H -0.82149 -1.6247 0.00183
O -6.42121 -5.23396 1.95365
C 0.04882 -4.29348 1.83663
C -3.1433 -7.1104 1.48502
C -2.7769 -8.51356 2.00745
C -4.10732 -8.93518 2.575
C -4.9769 -7.72597 2.19043
O -4.42994 -7.30113 0.96742
H -2.7672 -6.68366 3.41781
H -4.76998 -6.98896 4.16891
H 0.30132 -3.30651 2.20586
H -2.34 -6.84 0.78725
H -2.52195 -9.16118 1.14008
H -1.92316 -8.54061 2.72398
H -4.43946 -9.83931 2.01999
H -4.11142 -9.14643 3.66683
H -6.04446 -8.03498 2.16084
H 0.52313 -4.34593 0.83834
H 0.5251 -4.51247 0.85911
H 0.73246 -0.37635 3.59331
H 0.49276 -2.07083 4.14674
H -0.65735 -0.7795 4.68638
H -3.75771 -3.77427 5.21688
H -3.64325 -5.44474 4.98486
H -5.61393 -5.17584 6.1407
H -6.04614 -3.65065 5.28301
$end

$opt
CONSTRAINT
tors           1           2           3           4     +28.421
tors           3           4           5           6    -123.158
tors           4           5           6           7     +66.316
tors           5           6           7           8      -9.474
tors           6           7           8           9     +47.368
tors           7           8           9          10    -142.105
tors           8           9          10          11    -161.053
tors           9          10          11          12     +66.316
tors          11          12          13          14     -28.421
ENDCONSTRAINT
$end

$rem
JOBTYPE                   OPT
METHOD                    B3LYP
DFT_D                     d3_op
BASIS                     STO-3G
GEOM_OPT_MAX_CYCLES       100
GEOM_OPT_TOL_GRADIENT     300
GEOM_OPT_TOL_DISPLACEMENT 1200
GEOM_OPT_TOL_ENERGY       100
SYMMETRY                  False
THRESH                    12
SCF_CONVERGENCE           8
MAX_SUB_FILE_NUM          128
MEM_STATIC                400
MEM_TOTAL                 4000
$end
