$molecule
0  1
O -3.94934 -3.66094 2.70899
C -3.26408 -4.56952 2.26188
C -3.36658 -6.02376 2.66595
C -3.88107 -7.01264 1.60705
C -4.06705 -6.46695 0.20858
O -4.18066 -5.1066 0.25262
C -5.21348 -4.59989 -0.59931
C -6.11555 -3.64684 0.17791
O -6.11689 -2.35425 -0.44827
C -5.75379 -1.31946 0.34954
C -6.00755 -1.58824 1.81379
C -5.74299 -0.39688 2.74596
C -5.61742 0.95454 2.07171
O -4.63348 1.67887 2.1136
O -2.2126 -4.23678 1.4556
O -6.70273 1.39493 1.37478
O -5.29451 -0.3054 -0.14917
C -6.76863 2.60223 0.71113
C -7.50384 -1.84309 2.18762
C -7.57695 -2.66533 3.47535
C -7.09679 -1.64351 4.48797
C -7.0196 -0.3961 3.59823
O -8.00807 -0.60518 2.62375
H -5.42578 -2.33642 2.20681
H -4.81162 -0.53563 3.34226
H -8.10036 -2.33071 1.38903
H -8.65709 -2.86613 3.6597
H -7.02589 -3.62995 3.47958
H -7.87445 -1.53799 5.2763
H -6.10882 -1.86156 4.9489
H -7.11705 0.53356 4.20144
O -4.3403 -7.16317 -0.76185
C -1.92908 -2.95197 1.04006
C -1.99708 -6.6313 3.00542
C -2.17252 -7.87284 3.88026
C -2.69699 -8.86195 2.86104
C -2.69013 -7.99532 1.59899
O -1.56736 -7.16513 1.77831
H -4.03425 -6.04499 3.55678
H -4.82359 -7.53137 1.89058
H -1.72921 -2.3008 1.91762
H -1.31176 -5.90506 3.49544
H -1.16475 -8.20899 4.21331
H -2.82313 -7.71303 4.76698
H -1.94822 -9.67773 2.7474
H -3.69491 -9.29631 3.08617
H -2.67452 -8.64437 0.69564
H -2.78118 -2.54219 0.45619
H -1.02782 -2.96919 0.3939
H -7.7644 2.69961 0.23226
H -5.98664 2.64913 -0.07659
H -6.63201 3.44036 1.42738
H -7.14996 -4.01039 -0.00754
H -6.0659 -3.91192 1.2414
H -5.85153 -5.39354 -1.05714
H -4.74409 -4.06029 -1.45022
$end

$opt
CONSTRAINT
tors           1           2           3           4    +112.516
tors           3           4           5           6     -20.903
tors           4           5           6           7    -137.055
tors           5           6           7           8    +129.800
tors           6           7           8           9    +121.509
tors           7           8           9          10    -123.763
tors           8           9          10          11     -25.541
tors           9          10          11          12    -174.249
tors          11          12          13          14    -119.972
ENDCONSTRAINT
$end

$rem
JOBTYPE                   OPT
METHOD                    B3LYP
DFT_D                     d3_op
BASIS                     STO-3G
GEOM_OPT_MAX_CYCLES       100
GEOM_OPT_TOL_GRADIENT     300
GEOM_OPT_TOL_DISPLACEMENT 1200
GEOM_OPT_TOL_ENERGY       100
SYMMETRY                  False
THRESH                    12
SCF_CONVERGENCE           8
MAX_SUB_FILE_NUM          128
MEM_STATIC                400
MEM_TOTAL                 4000
$end
