$molecule
0  1
O -6.2468939916 -1.2997375273 0.3574171644
C -5.1934009965 -0.7350954542 -0.0086491631
C -4.6907797333 0.6866219193 0.4222472649
C -3.1598214151 0.7532443911 0.8221318229
C -2.4832559764 -0.6592283248 0.9560548876
O -1.104741032 -0.5406290605 0.6045376141
C -0.4273595451 -1.8613807596 0.6536067236
C 1.0633053238 -1.597100689 0.2516137763
O 1.8978966513 -1.8049853836 1.4693189251
C 3.2577004908 -1.4524706311 1.0850899997
C 3.5964925608 0.0939840754 1.2288956922
C 4.5899971844 0.6102689962 0.1070501878
C 5.1137375933 -0.5190532794 -0.8449882613
O 6.2580076541 -1.0206177784 -0.862096946
O -4.3191997329 -1.2437981808 -1.0249398359
O 4.0409981867 -0.9154312354 -1.7102989636
O 4.1060842392 -2.3237746072 0.8056034327
C 4.4601902999 -2.0683597551 -2.5377160008
C 2.383494257 1.0857616865 1.0589356325
C 2.8276485173 2.5361371393 1.4998303436
C 3.67692942 2.9946946852 0.2568681386
C 3.6544574336 1.6829247723 -0.6179803285
O 2.2701961281 1.1808516971 -0.4176003026
H 4.0564013955 0.2060666239 2.2300868585
H 5.473233744 1.0955608618 0.5574847125
H 1.4374224844 0.7352091598 1.5125353596
H 1.9455906595 3.1783635764 1.6503813866
H 3.4146489859 2.5202469432 2.4320603501
H 3.1879105558 3.8231182882 -0.2804999957
H 4.7002041982 3.3010149756 0.5261866076
H 3.8592137249 1.8238266776 -1.6967877658
O -3.0190192581 -1.7189666216 1.3490195384
C -4.7616016421 -2.5923285479 -1.4418041204
C -4.6961635593 1.6659574318 -0.8336049449
C -4.493361016 3.1496828286 -0.3264736213
C -2.9495837986 3.1609059565 -0.0199189964
C -2.5696588513 1.6626333071 -0.3395188644
O -3.4195045039 1.3432605977 -1.5091290301
H -5.3466261967 1.047112807 1.2334720177
H -3.044416249 1.2599068622 1.7991503024
H -5.8179107316 -2.5920407964 -1.7797852508
H -5.5490683079 1.5179043483 -1.5239937931
H -4.7559014462 3.8684727229 -1.1188640235
H -5.1038768019 3.3680578975 0.5643613804
H -2.4102358047 3.8444526076 -0.6950223627
H -2.7227549101 3.4402616385 1.0213896091
H -1.5029223707 1.4702918537 -0.5641831222
H -4.6553458343 -3.3241962084 -0.6145752324
H -4.1027552604 -2.8843234156 -2.2802047277
H 3.5955183656 -2.3132073088 -3.1816684715
H 4.7139839938 -2.9440990028 -1.9054477773
H 5.3372134844 -1.82372606 -3.171189326
H 1.3657142076 -2.3314087037 -0.5296919663
H 1.1857802544 -0.581114825 -0.1899013799
H -0.9148162127 -2.5679811329 -0.0519827959
H -0.4729165215 -2.3016129751 1.6743838951
$end

$rem
JOBTYPE                   OPT
METHOD                    B3LYP
DFT_D                     d3_op
BASIS                     STO-3G
GEOM_OPT_MAX_CYCLES       100
GEOM_OPT_TOL_GRADIENT     300
GEOM_OPT_TOL_DISPLACEMENT 1200
GEOM_OPT_TOL_ENERGY       100
SYMMETRY                  False
THRESH                    12
SCF_CONVERGENCE           8
MAX_SUB_FILE_NUM          128
MEM_STATIC                400
MEM_TOTAL                 4000
$end
