$molecule
0  1
O -4.5634392219 -1.7031158949 2.1636842304
C -5.1443286014 -1.3007683391 1.1332998142
C -5.2195705544 0.1797989662 0.6087784236
C -3.852105977 0.9742109023 0.5856676084
C -2.5916980445 0.0480998051 0.3756945839
O -1.519251192 0.8644670629 -0.1158772994
C -0.3289070118 0.0214569333 -0.3873573606
C 0.7824180581 0.9848336547 -0.9151529237
O 1.9806198386 0.1535326949 -1.1873236563
C 3.1764722962 0.8909168441 -0.9229059097
C 4.4249896106 -0.0151983652 -1.2177517894
C 5.5952342105 0.1930790933 -0.1660737482
C 5.2325560341 1.1725483071 1.0032443897
O 5.8522542008 2.2036266339 1.341732963
O -5.8811117091 -2.1540048623 0.2493725788
O 4.0907876771 0.6492470848 1.6954531073
O 3.1947758358 2.0807955588 -0.5357134512
C 3.6609694422 1.595304836 2.7478107519
C 4.1488187668 -1.5707880612 -1.0708625024
C 5.318129258 -2.346375612 -1.7956175107
C 6.4963872037 -2.1407599644 -0.7716484807
C 5.7782703442 -1.2991280643 0.3561737201
O 4.397721064 -1.832078005 0.3647717136
H 4.7748833911 0.2283250903 -2.2386492105
H 6.5111657407 0.5725015707 -0.6511261543
H 3.1217769321 -1.874142151 -1.3501879075
H 5.0620873727 -3.4117215932 -1.9097065758
H 5.5400531645 -1.9277648978 -2.7901977174
H 6.8519717496 -3.1014620489 -0.3664511535
H 7.3522252127 -1.603250957 -1.2104079377
H 6.2297769933 -1.3798962668 1.3638888944
O -2.5025253896 -1.1916028086 0.494449505
C -5.8130971466 -3.5529437874 0.7288521242
C -5.7489284091 0.4174069609 -0.8725745191
C -6.4882328985 1.8102507943 -0.8703308828
C -5.2655935477 2.7815118638 -0.6622018559
C -4.0460448904 1.7811154965 -0.7702528463
O -4.5320857136 0.7041032613 -1.6682991901
H -5.899057583 0.6972092569 1.3130804691
H -3.7148569184 1.6191442661 1.4723928836
H -6.2826975901 -3.6671173099 1.7274369558
H -6.3095394343 -0.4347014533 -1.3019699865
H -6.9803332949 1.9857080727 -1.8405723234
H -7.2413640148 1.8895217438 -0.0701801545
H -5.2114092559 3.5452263187 -1.4541356925
H -5.2920349247 3.2901883598 0.3151169028
H -3.1053991693 2.2162437267 -1.158243458
H -4.7648539727 -3.9098724769 0.7906273298
H -6.368965662 -4.1569428498 -0.0117859381
H 2.8545555823 1.0863454949 3.3072617362
H 3.269032052 2.5336819306 2.3033985312
H 4.4915284428 1.8501766186 3.4367532248
H 0.4461897364 1.4814578261 -1.8515000554
H 1.0273433966 1.7712965655 -0.1697182066
H -0.5615345896 -0.7569674514 -1.1464970549
H 0.016744036 -0.4930204507 0.535742032
$end

$rem
JOBTYPE                   OPT
METHOD                    B3LYP
DFT_D                     d3_op
BASIS                     STO-3G
GEOM_OPT_MAX_CYCLES       100
GEOM_OPT_TOL_GRADIENT     300
GEOM_OPT_TOL_DISPLACEMENT 1200
GEOM_OPT_TOL_ENERGY       100
SYMMETRY                  False
THRESH                    12
SCF_CONVERGENCE           8
MAX_SUB_FILE_NUM          128
MEM_STATIC                400
MEM_TOTAL                 4000
$end
