$molecule
0  1
O -3.94934 -3.66094 2.70899
C -3.26408 -4.56952 2.26188
C -3.36658 -6.02376 2.66595
C -4.61695 -6.79333 2.20968
C -5.53944 -6.07352 1.25105
O -6.25865 -6.98242 0.52851
C -7.11366 -6.37669 -0.44684
C -7.20698 -7.26121 -1.68581
O -8.4236 -6.98173 -2.39616
C -9.54333 -7.54584 -1.87933
C -10.81015 -6.85746 -2.32873
C -11.13854 -5.55535 -1.58378
C -10.00697 -4.95324 -0.77525
O -9.47733 -5.47078 0.19747
O -2.30272 -4.24641 1.35389
O -9.61602 -3.69231 -1.11503
O -9.54656 -8.59866 -1.25419
C -8.82335 -2.86357 -0.34655
C -10.83498 -6.3815 -3.79348
C -12.28 -6.31094 -4.28058
C -12.79166 -5.13295 -3.47529
C -11.49175 -4.67042 -2.80185
O -10.48605 -5.01932 -3.72426
H -11.63036 -7.59584 -2.17177
H -11.99039 -5.68086 -0.87976
H -10.22418 -7.01404 -4.47385
H -12.24064 -6.01879 -5.35471
H -12.87204 -7.24588 -4.17938
H -13.17333 -4.36528 -4.18447
H -13.56982 -5.37617 -2.71966
H -11.57154 -3.59207 -2.54418
O -5.58342 -4.86455 1.06637
C -2.07019 -2.97189 0.88057
C -2.24429 -6.89523 2.05869
C -2.04846 -8.16133 2.89092
C -3.2835 -8.93743 2.50624
C -3.90774 -7.97771 1.48915
O -2.80116 -7.37838 0.86687
H -3.2492 -6.03178 3.77249
H -5.24605 -7.1835 3.03979
H -1.79364 -2.29671 1.71835
H -1.26828 -6.37052 1.96859
H -1.15621 -8.69668 2.49388
H -1.91741 -7.98249 3.97988
H -2.96257 -9.87153 1.99246
H -3.97294 -9.18555 3.34188
H -4.56684 -8.56985 0.81969
H -2.97605 -2.58374 0.36753
H -1.23274 -3.00118 0.15378
H -8.69241 -1.89759 -0.87569
H -7.82399 -3.30251 -0.17474
H -9.31477 -2.66933 0.63042
H -6.34315 -7.00708 -2.33473
H -7.11868 -8.34793 -1.45076
H -7.07224 -5.28986 -0.64308
H -7.97539 -6.79874 0.02778
$end

$opt
CONSTRAINT
tors           1           2           3           4     +70.698
tors           3           4           5           6    +155.631
tors           4           5           6           7    -177.329
tors           5           6           7           8    +145.626
tors           6           7           8           9    +156.249
tors           7           8           9          10     -78.836
tors           8           9          10          11    +159.515
tors           9          10          11          12     -79.270
tors          11          12          13          14     -64.262
ENDCONSTRAINT
$end

$rem
JOBTYPE                   OPT
METHOD                    B3LYP
DFT_D                     d3_op
BASIS                     STO-3G
GEOM_OPT_MAX_CYCLES       100
GEOM_OPT_TOL_GRADIENT     300
GEOM_OPT_TOL_DISPLACEMENT 1200
GEOM_OPT_TOL_ENERGY       100
SYMMETRY                  False
THRESH                    12
SCF_CONVERGENCE           8
MAX_SUB_FILE_NUM          128
MEM_STATIC                400
MEM_TOTAL                 4000
$end
