$molecule
0  1
O 4.0772529883 -2.917446843 -0.3805240687
C 4.1052043444 -1.7493083666 0.063651482
C 4.2613296621 -0.4306888786 -0.7747534546
C 2.9798601778 0.5039232545 -0.7643736202
C 1.8037951483 -0.0904692057 0.0857162567
O 0.973413019 0.9603703202 0.5582071978
C -0.0967209051 0.4274868816 1.4424838487
C -0.9450054335 1.6662573997 1.9171837226
O -2.3765768783 1.4663284603 1.5956605996
C -2.5710269935 1.5365779182 0.1792494616
C -4.0631588819 1.2039845992 -0.1708837672
C -4.1841570602 -0.0372994348 -1.1564281719
C -2.8435991652 -0.6980367851 -1.6322397872
O -2.5014591812 -0.848063484 -2.8266392063
O 4.0931220522 -1.4129498606 1.4577222372
O -2.0922896452 -1.2022305608 -0.5134951907
O -1.6688470828 1.8257193947 -0.6368916213
C -1.0068766164 -2.0967443393 -1.0011345114
C -4.9128957213 0.6934268497 1.0642421101
C -6.4426228306 0.7236392656 0.6691326245
C -6.5423953742 -0.5363123235 -0.2685208849
C -5.0448832428 -1.036644615 -0.2610866899
O -4.591416795 -0.7521425128 1.1178337204
H -4.5090076968 2.1032721811 -0.6350755588
H -4.7318974792 0.2464448909 -2.0721956685
H -4.6578998621 1.1824745402 2.0231587127
H -7.0735216317 0.6127053617 1.5653399637
H -6.7202132739 1.6584518965 0.1564681043
H -7.205715328 -1.3058235584 0.1576410656
H -6.8943069959 -0.2885626518 -1.2827677697
H -4.9031569648 -2.1078438832 -0.5027794749
O 1.5824173328 -1.3084135922 0.2981652675
C 3.8696490405 -2.6347681188 2.2612536563
C 5.3423298553 0.5589101815 -0.1561420213
C 5.731254346 1.6214104746 -1.2594857766
C 4.4558842179 2.5430869405 -1.2585000069
C 3.5742328495 1.8406470411 -0.1525161337
O 4.5687009361 1.3497872439 0.8283496407
H 4.523181292 -0.7271748103 -1.8055237116
H 2.5990142995 0.668010163 -1.7902079931
H 4.6247121057 -3.4164069082 2.0400791803
H 6.1963696296 0.0558381254 0.3368625216
H 6.6321620694 2.1780114792 -0.9559516512
H 5.9190287503 1.153841504 -2.2391583115
H 4.7013671502 3.5740294056 -0.9578969203
H 3.9490453153 2.5707710061 -2.2362256834
H 2.8178312677 2.4816721904 0.3394205388
H 2.8604527246 -3.0561801853 2.0736720551
H 3.9515075596 -2.32610801 3.3196240637
H -0.0774647735 -1.880439179 -0.4289500643
H -0.8477848148 -1.9238674085 -2.0835304348
H -1.3094530997 -3.1500838582 -0.8373723844
H -0.9051039864 1.7849880219 3.0174440178
H -0.5436673803 2.5813296384 1.429074307
H 0.3515289462 -0.1151678531 2.3016723648
H -0.7674522165 -0.2697624193 0.8881228687
$end

$rem
JOBTYPE                   OPT
METHOD                    B3LYP
DFT_D                     d3_op
BASIS                     STO-3G
GEOM_OPT_MAX_CYCLES       100
GEOM_OPT_TOL_GRADIENT     300
GEOM_OPT_TOL_DISPLACEMENT 1200
GEOM_OPT_TOL_ENERGY       100
SYMMETRY                  False
THRESH                    12
SCF_CONVERGENCE           8
MAX_SUB_FILE_NUM          128
MEM_STATIC                400
MEM_TOTAL                 4000
$end
