$molecule
0  1
O -3.5696470516 0.1360792533 2.3797314805
C -3.9179836746 0.8749120531 1.4339753332
C -4.7953991743 0.4925489908 0.191774173
C -3.9690023708 -0.1117431436 -1.025236429
C -2.4542310503 -0.4044612835 -0.7078230266
O -1.8770694038 0.8167167725 -0.2387550089
C -0.3930710491 0.8813904283 -0.2660127854
C 0.3747137541 -0.3828925008 0.2594157724
O 1.8213390293 -0.0910663133 0.0869049136
C 2.6015233405 -1.0335597789 0.8361632627
C 4.0290078153 -1.2608939235 0.2064809905
C 4.6015958954 -0.0956446768 -0.6927600344
C 3.5720761444 0.8493251415 -1.4065808165
O 3.4699498865 2.0896863821 -1.2999718342
O -3.6329755283 2.2779773577 1.3608989218
O 2.9200375447 0.0742981757 -2.4279434018
O 2.1671267052 -1.6495162664 1.8338947952
C 2.0943735052 0.9546917787 -3.281128517
C 5.048650496 -1.1845583711 1.4213611176
C 6.5163125291 -1.5277041937 0.9492479784
C 6.9522363827 -0.1757758156 0.2686242938
C 5.5933572169 0.6224646748 0.3198266777
O 5.0732201031 0.2807014805 1.6652004581
H 4.0265365098 -2.233963676 -0.3181449015
H 5.1844319474 -0.5537765119 -1.5136737893
H 4.6961740887 -1.7236338749 2.3224094517
H 7.1539622201 -1.7740414571 1.8128753326
H 6.5318824443 -2.3778122847 0.2480897728
H 7.7229216895 0.3414945535 0.8624533022
H 7.3268667623 -0.3123646278 -0.7583850893
H 5.6614511397 1.720480584 0.1922342062
O -1.8578197134 -1.4819093317 -0.9240862734
C -2.7570567974 2.6707829935 2.4876832947
C -5.8008085281 -0.7009269403 0.4876685845
C -6.9378044075 -0.6560926045 -0.6072456366
C -6.157348753 -1.1764727499 -1.871876935
C -4.7357294867 -1.4783561529 -1.2541533363
O -5.0331700844 -1.9150648692 0.1302363975
H -5.3317938066 1.4026959267 -0.1298954497
H -4.0108776206 0.5565333813 -1.9051586654
H -1.7863750399 2.1355590793 2.4514011538
H -6.1476328206 -0.7586583012 1.5375381813
H -7.7595722649 -1.3367876952 -0.3330980287
H -7.3477805846 0.3572030165 -0.7439004259
H -6.6068977083 -2.0971491141 -2.276379273
H -6.1064446699 -0.4258722315 -2.6769083408
H -4.1312429452 -2.2444701172 -1.7776197968
H -3.233894163 2.4669488612 3.4683095475
H -2.5842754429 3.7571458692 2.3777639755
H 1.6390944287 0.3004264081 -4.0473981862
H 2.7066476765 1.7360007086 -3.7768486492
H 1.292501182 1.4593864808 -2.7049209131
H 0.137889171 -0.5771703433 1.3273866111
H 0.0670985451 -1.2664902692 -0.339347262
H -0.1320787662 1.7679064187 0.3473671628
H -0.0682901163 1.0780941996 -1.3113456501
$end

$rem
JOBTYPE                   OPT
METHOD                    B3LYP
DFT_D                     d3_op
BASIS                     STO-3G
GEOM_OPT_MAX_CYCLES       100
GEOM_OPT_TOL_GRADIENT     300
GEOM_OPT_TOL_DISPLACEMENT 1200
GEOM_OPT_TOL_ENERGY       100
SYMMETRY                  False
THRESH                    12
SCF_CONVERGENCE           8
MAX_SUB_FILE_NUM          128
MEM_STATIC                400
MEM_TOTAL                 4000
$end
